NAME : RL_Simulation
TYPE : CVRP
DIMENSION : 239
VEHICLES : 20
CAPACITY : 30
DISTANCE : 14400
EDGE_WEIGHT_TYPE : EXPLICIT
EDGE_WEIGHT_FORMAT : FULL_MATRIX
DEPOT_SECTION
5
-1
DEMAND_SECTION
1 5
2 5
3 5
4 5
5 5
6 5
7 5
8 5
9 5
10 5
11 5
12 5
13 5
14 5
15 5
16 5
17 5
18 5
19 5
20 5
21 5
22 5
23 5
24 5
25 5
26 5
27 5
28 5
29 5
30 5
31 5
32 5
33 5
34 5
35 5
36 5
37 5
38 5
39 5
40 5
41 5
42 5
43 5
44 5
45 5
46 5
47 5
48 5
49 5
50 5
51 5
52 5
53 5
54 5
55 5
56 5
57 5
58 5
59 5
60 5
61 5
62 5
63 5
64 5
65 5
66 5
67 5
68 5
69 5
70 5
71 5
72 5
73 5
74 5
75 5
76 5
77 5
78 5
79 5
80 5
81 5
82 5
83 5
84 5
85 5
86 5
87 5
88 5
89 5
90 5
91 5
92 5
93 5
94 5
95 5
96 5
97 5
98 5
99 5
100 5
101 5
102 5
103 5
104 5
105 5
106 5
107 5
108 5
109 5
110 5
111 5
112 5
113 5
114 5
115 5
116 5
117 5
118 5
119 5
120 5
121 5
122 5
123 5
124 5
125 5
126 5
127 5
128 5
129 5
130 5
131 5
132 5
133 5
134 5
135 5
136 5
137 5
138 5
139 5
140 5
141 5
142 5
143 5
144 5
145 5
146 5
147 5
148 5
149 5
150 5
151 5
152 5
153 5
154 5
155 5
156 5
157 5
158 5
159 5
160 5
161 5
162 5
163 5
164 5
165 5
166 5
167 5
168 5
169 5
170 5
171 5
172 5
173 5
174 5
175 5
176 5
177 5
178 5
179 5
180 5
181 5
182 5
183 5
184 5
185 5
186 5
187 5
188 5
189 5
190 5
191 5
192 5
193 5
194 5
195 5
196 5
197 5
198 5
199 5
200 5
201 5
202 5
203 5
204 5
205 5
206 5
207 5
208 5
209 5
210 5
211 5
212 5
213 5
214 5
215 5
216 5
217 5
218 5
219 5
220 5
221 5
222 5
223 5
224 5
225 5
226 5
227 5
228 5
229 5
230 5
231 5
232 5
233 5
234 5
235 5
236 5
237 5
238 5
239 5
EDGE_WEIGHT_SECTION
0 7205 14417 3628 79364 86588 90204 65100 65069 54210 57815 61276 25244 36067 75750 79378 50536 50560 50549 39710 43313 28863 28839 68484 72199 21640 18027 32457 57755 65050 68691 72318 83138 50583 50594 82985 61433 18040 32444 36084 61429 43315 46928 50547 43342 50520 46930 54136 46924 43343 61342 43319 46907 43324 43323 57738 46915 43340 61342 39690 54126 43321 46964 50521 43299 46947 46964 86749 3606 39670 28869 28870 28871 39659 36055 36104 32478 21630 25249 72147 68511 72113 75703 82988 82970 72099 64882 68489 61279 64881 68495 64882 64882 64882 61275 61266 61273 86504 72088 82987 82984 75694 75692 82903 79297 86507 82902 64882 68501 72089 68491 64880 61279 61278 72102 64888 68500 50510 46943 57673 54063 50458 54066 43272 36050 39652 43256 21644 18035 14432 3604 10828 7208 10808 10811 14436 32488 28855 39698 36089 57757 54145 57808 54204 54208 50591 86748 90351 25232 28840 18027 18021 21631 25236 32453 21634 32443 28838 25236 32443 28838 28850 32459 61360 61358 61361 64963 61359 61360 72260 68651 68654 72261 75898 72293 72281 75885 68680 68678 72319 68716 90352 86748 90352 57846 54239 68677 72293 72282 68679 68680 65078 61269 57664 50465 46856 36057 32450 43254 39651 32453 28847 79531 75923 72309 68705 75912 72308 61464 57860 61447 57845 65048 61446 72172 68565 64958 61361 75770 72167 36059 57808 61414 50581 54195 25240 28854 82977 82979 61437 61482 54247 75981 93965 61463 93968 93969 90366 93957
7205 0 7212 10833 72159 79383 82999 57895 57864 47005 50610 54071 18039 28862 68545 72173 43331 43355 43344 32505 36108 21658 21634 61279 64994 14435 10822 25252 50550 57845 61486 65113 75933 43378 43389 75780 54228 18037 25239 28879 54224 36110 39723 43342 36137 43315 39725 46931 39719 36138 54137 36114 39702 36119 36118 50533 39710 36135 54137 32485 46921 36116 39759 43316 36094 39742 39759 79544 10811 32465 21664 21665 21666 32454 28850 28899 25273 14425 18044 64942 61306 64908 68498 75783 75765 64894 57677 61284 54074 57676 61290 57677 57677 57677 54070 54061 54068 79299 64883 75782 75779 68489 68487 75698 72092 79302 75697 57677 61296 64884 61286 57675 54074 54073 64897 57683 61295 43305 39738 50468 46858 43253 46861 36067 28845 32447 36051 18041 14432 14429 3601 10825 7205 3603 3606 7231 25283 21650 32493 28884 50552 46940 50603 46999 47003 43386 79543 83146 18027 21635 10822 10816 14426 18031 25248 14429 25238 21633 18031 25238 21633 21645 25254 54155 54153 54156 57758 54154 54155 65055 61446 61449 65056 68693 65088 65076 68680 61475 61473 65114 61511 83147 79543 83147 50641 47034 61472 65088 65077 61474 61475 57873 54064 50459 43260 39651 28852 25245 36049 32446 25248 21642 72326 68718 65104 61500 68707 65103 54259 50655 54242 50640 57843 54241 64967 61360 57753 54156 68565 64962 28854 50603 54209 43376 46990 18035 21649 75772 75774 54232 54277 47042 68776 86760 54258 86763 86764 83161 86752
14417 7212 0 18045 64947 72171 75787 50683 50652 39793 43398 46859 10827 21650 61333 64961 36119 36143 36132 25293 28896 14446 14422 54067 57782 7223 3610 18040 43338 50633 54274 57901 68721 36166 36177 68568 47016 14431 18027 21667 47012 28898 32511 36130 28925 36103 32513 39719 32507 28926 46925 28902 32490 28907 28906 43321 32498 28923 46925 25273 39709 28904 32547 36104 28882 32530 32547 72332 18023 25253 14452 14453 14454 25242 21638 21687 18061 7213 10832 57730 54094 57696 61286 68571 68553 57682 50465 54072 46862 50464 54078 50465 50465 50465 46858 46849 46856 72087 57671 68570 68567 61277 61275 68486 64880 72090 68485 50465 54084 57672 54074 50463 46862 46861 57685 50471 54083 36093 32526 43256 39646 36041 39649 28855 21633 25235 28839 10829 7220 10823 10813 14427 14417 10815 3606 7231 18071 14438 25281 21672 43340 39728 43391 39787 39791 36174 72331 75934 10815 14423 3610 3604 7214 10819 18036 7217 18026 14421 10819 18026 14421 14433 18042 46943 46941 46944 50546 46942 46943 57843 54234 54237 57844 61481 57876 57864 61468 54263 54261 57902 54299 75935 72331 75935 43429 39822 54260 57876 57865 54262 54263 50661 46852 43247 36048 32439 21640 18033 28837 25234 18036 14430 65114 61506 57892 54288 61495 57891 47047 43443 47030 43428 50631 47029 57755 54148 50541 46944 61353 57750 21642 43391 46997 36164 39778 10823 14437 68560 68562 47020 47065 39830 61564 79548 47046 79551 79552 75949 79540
3628 10833 18045 0 82992 90216 93832 68728 68697 57838 61443 64904 28872 39695 79378 83006 54164 54188 54177 43338 46941 32491 32467 72112 75827 25268 21655 36085 61383 68678 72319 75946 86766 54211 54222 86613 65061 21668 36072 39712 65057 46943 50556 54175 46970 54148 50558 57764 50552 46971 64970 46947 50535 46952 46951 61366 50543 46968 64970 43318 57754 46949 50592 54149 46927 50575 50592 90377 7234 43298 32497 32498 32499 43287 39683 39732 36106 25258 28877 75775 72139 75741 79331 86616 86598 75727 68510 72117 64907 68509 72123 68510 68510 68510 64903 64894 64901 90132 75716 86615 86612 79322 79320 86531 82925 90135 86530 68510 72129 75717 72119 68508 64907 64906 75730 68516 72128 54138 50571 61301 57691 54086 57694 46900 39678 43280 46884 25272 21663 18060 7232 14456 10836 14436 14439 18064 36116 32483 43326 39717 61385 57773 61436 57832 57836 54219 90376 93979 28860 32468 21655 21649 25259 28864 36081 25262 36071 32466 28864 36071 32466 32478 36087 64988 64986 64989 68591 64987 64988 75888 72279 72282 75889 79526 75921 75909 79513 72308 72306 75947 72344 93980 90376 93980 61474 57867 72305 75921 75910 72307 72308 68706 64897 61292 54093 50484 39685 36078 46882 43279 36081 32475 83159 79551 75937 72333 79540 75936 65092 61488 65075 61473 68676 65074 75800 72193 68586 64989 79398 75795 39687 61436 65042 54209 57823 28868 32482 86605 86607 65065 65110 57875 79609 97593 65091 97596 97597 93994 97585
79364 72159 64947 82992 0 7224 10840 115630 115599 104740 108345 18095 75774 86597 3614 7242 101066 101090 101079 75794 79397 64947 68572 14427 14541 57724 61337 82987 108285 115580 119221 122848 133668 101113 101124 3621 111963 72158 72177 75817 111959 79399 83012 101077 93872 101050 97460 104666 97454 93873 111872 93849 97437 93854 93853 108268 97445 93870 111872 90220 104656 93851 97494 101051 93829 97477 83048 137279 82970 79403 64953 64954 64955 79392 75788 72188 68562 64970 61333 7217 10853 14455 18078 7225 3606 18042 14482 18089 18098 18030 21644 18031 21635 21696 18089 18098 18091 28841 10823 3623 3620 18031 18029 25240 21634 28844 25239 18029 21648 14426 21642 18031 18104 18097 28927 21713 25325 101040 97473 21698 25301 28906 32514 43338 43314 39718 36108 68556 64947 68550 75760 72154 75774 75762 68553 72178 83018 79385 90228 86619 108287 104675 108338 104734 104738 101121 137278 140881 68572 72180 68557 68551 72161 75766 82983 72164 82973 79368 75766 82973 79368 79380 82989 111890 111888 111891 115493 111889 111890 122790 119181 119184 122791 126428 122823 122811 126415 119210 119208 122849 119246 140882 137278 140882 108376 104769 119207 122823 122812 119209 119210 115608 25305 21700 36117 32508 50521 46914 43316 39713 54123 50517 130061 126453 122839 119235 126442 122838 111994 108390 111977 108375 115578 111976 122702 119095 115488 111891 126300 122697 86589 108338 111944 101111 104725 54124 57738 3613 3615 111967 112012 104777 126511 144495 111993 144498 144499 140896 144487
86588 79383 72171 90216 7224 0 3616 122854 122823 111964 115569 25319 82998 93821 10838 7213 108290 108314 108303 83018 86621 72171 75796 21651 21765 64948 68561 90211 115509 122804 126445 130072 140892 108337 108348 10845 119187 79382 79401 83041 119183 86623 90236 108301 101096 108274 104684 111890 104678 101097 119096 101073 104661 101078 101077 115492 104669 101094 119096 97444 111880 101075 104718 108275 101053 104701 90272 144503 90194 86627 72177 72178 72179 86616 83012 79412 75786 72194 68557 14441 18077 21679 25302 3603 3618 25266 21706 25313 25322 25254 28868 25255 28859 28920 25313 25322 25315 36065 18047 10847 10844 25255 25253 32464 28858 36068 32463 25253 28872 21650 28866 25255 25328 25321 36151 28937 32549 108264 104697 28922 32525 36130 39738 50562 50538 46942 43332 75780 72171 75774 82984 79378 82998 82986 75777 79402 90242 86609 97452 93843 115511 111899 115562 111958 111962 108345 144502 148105 75796 79404 75781 75775 79385 82990 90207 79388 90197 86592 82990 90197 86592 86604 90213 119114 119112 119115 122717 119113 119114 130014 126405 126408 130015 133652 130047 130035 133639 126434 126432 130073 126470 148106 144502 148106 115600 111993 126431 130047 130036 126433 126434 122832 32529 28924 43341 39732 57745 54138 50540 46937 61347 57741 137285 133677 130063 126459 133666 130062 119218 115614 119201 115599 122802 119200 129926 126319 122712 119115 133524 129921 93813 115562 119168 108335 111949 61348 64962 10837 10839 119191 119236 112001 133735 151719 119217 151722 151723 148120 151711
90204 82999 75787 93832 10840 3616 0 126470 126439 115580 119185 28935 86614 97437 14454 10829 111906 111930 111919 86634 90237 75787 79412 25267 25381 68564 72177 93827 119125 126420 130061 133688 144508 111953 111964 14461 122803 82998 83017 86657 122799 90239 93852 111917 104712 111890 108300 115506 108294 104713 122712 104689 108277 104694 104693 119108 108285 104710 122712 101060 115496 104691 108334 111891 104669 108317 93888 148119 93810 90243 75793 75794 75795 90232 86628 83028 79402 75810 72173 18057 21693 25295 28918 7219 7234 28882 25322 28929 28938 28870 32484 28871 32475 32536 28929 28938 28931 39681 21663 14463 14460 28871 28869 36080 32474 39684 36079 28869 32488 25266 32482 28871 28944 28937 39767 32553 36165 111880 108313 32538 36141 39746 43354 54178 54154 50558 46948 79396 75787 79390 86600 82994 86614 86602 79393 83018 93858 90225 101068 97459 119127 115515 119178 115574 115578 111961 148118 151721 79412 83020 79397 79391 83001 86606 93823 83004 93813 90208 86606 93813 90208 90220 93829 122730 122728 122731 126333 122729 122730 133630 130021 130024 133631 137268 133663 133651 137255 130050 130048 133689 130086 151722 148118 151722 119216 115609 130047 133663 133652 130049 130050 126448 36145 32540 46957 43348 61361 57754 54156 50553 64963 61357 140901 137293 133679 130075 137282 133678 122834 119230 122817 119215 126418 122816 133542 129935 126328 122731 137140 133537 97429 119178 122784 111951 115565 64964 68578 14453 14455 122807 122852 115617 137351 155335 122833 155338 155339 151736 155327
65100 57895 50683 68728 115630 122854 126470 0 21749 10890 7285 97542 39856 54292 112016 115644 18169 14540 14551 75976 79579 65129 65105 104750 108465 57906 54293 36213 25388 28962 10933 7218 18038 14517 14506 119251 3667 65114 68710 72350 3671 79581 83194 14553 21762 36240 21792 39856 21781 21757 47062 21781 32627 21776 21781 43458 32635 21760 47062 25410 39846 21779 18180 36241 29019 21784 83230 21649 68706 75936 65135 65136 65137 75925 72321 72370 68744 57896 61515 108413 104777 108379 111969 119254 119236 108365 101148 104755 97545 101147 104761 101148 101148 101148 97541 97532 97539 122770 108354 119253 119250 111960 111958 119169 115563 122773 119168 101148 104767 108355 104757 101146 97545 97544 108368 101154 104766 36230 18157 93939 90329 86724 90332 79538 72316 75918 79522 61512 57903 61506 61496 65110 65100 61498 54289 57914 32612 36245 32620 29011 25390 21778 21742 18138 18142 14525 21648 25251 61498 57895 47073 54287 50678 54283 50678 43466 47069 50670 47068 54275 50670 43462 47071 28993 28991 28994 32560 28992 28993 36172 32563 25360 28967 14414 10809 18135 21739 21740 21738 7219 3616 25252 21648 25252 21758 18151 21739 14535 18142 21737 10922 7320 97535 93930 86731 83122 72323 68716 79520 75917 68719 65113 14431 10823 7209 3605 10812 7208 18144 14540 25359 21757 28960 25358 39769 36162 28958 25352 43367 39764 39815 21742 25348 14583 18197 61506 65120 119243 119245 3663 10952 18249 10881 28865 3697 28868 28869 25266 28857
65069 57864 50652 68697 115599 122823 126439 21749 0 10859 14464 97511 39825 54261 111985 115613 18138 14509 14520 75945 79548 65098 65074 104719 108434 57875 54262 36182 25357 7215 14414 28967 39787 14486 14475 119220 18082 65083 68679 72319 18078 79550 83163 14522 21731 36209 21761 39825 21750 21726 47031 21750 32596 21745 21750 43427 32604 21729 47031 25379 39815 21748 18149 36210 28988 21753 83199 43398 68675 75905 65104 65105 65106 75894 72290 72339 68713 57865 61484 108382 104746 108348 111938 119223 119205 108334 101117 104724 97514 101116 104730 101117 101117 101117 97510 97501 97508 122739 108323 119222 119219 111929 111927 119138 115532 122742 119137 101117 104736 108324 104726 101115 97514 97513 108337 101123 104735 36199 18126 93908 90298 86693 90301 79507 72285 75887 79491 61481 57872 61475 61465 65079 65069 61467 54258 57883 32581 36214 32589 28980 25359 21747 21711 18107 18111 14494 43397 47000 61467 57864 47042 54256 50647 54252 50647 43435 47038 50639 47037 54244 50639 43431 47040 28836 28836 28835 25231 28835 28834 14425 10816 3611 7218 21621 18016 7212 10816 3611 3609 28968 25365 47001 43397 47001 21633 18026 3608 10812 7213 3610 21629 18027 97504 93899 86700 83091 72292 68685 79489 75886 68688 65082 36180 32572 28824 25220 25221 21617 3605 7209 18022 14420 14421 10819 25236 21629 28833 25321 21630 18027 39784 21711 25317 14552 18166 61475 65089 119212 119214 18086 18131 18218 32630 50614 18112 50617 50618 47015 50606
54210 47005 39793 57838 104740 111964 115580 10890 10859 0 3605 86652 28966 43402 101126 104754 7279 3650 3661 65086 68689 54239 54215 93860 97575 47016 43403 25323 14498 18072 14481 18108 28928 3627 3616 108361 7223 54224 57820 61460 7219 68691 72304 3663 10872 25350 10902 28966 10891 10867 36172 10891 21737 10886 10891 32568 21745 10870 36172 14520 28956 10889 7290 25351 18129 10894 72340 32539 57816 65046 54245 54246 54247 65035 61431 61480 57854 47006 50625 97523 93887 97489 101079 108364 108346 97475 90258 93865 86655 90257 93871 90258 90258 90258 86651 86642 86649 111880 97464 108363 108360 101070 101068 108279 104673 111883 108278 90258 93877 97465 93867 90256 86655 86654 97478 90264 93876 25340 7267 83049 79439 75834 79442 68648 61426 65028 68632 50622 47013 50616 50606 54220 54210 50608 43399 47024 21722 25355 21730 18121 14500 10888 10852 7248 7252 3635 32538 36141 50608 47005 36183 43397 39788 43393 39788 32576 36179 39780 36178 43385 39780 32572 36181 18103 18101 18104 21670 18102 18103 25282 21673 14470 18077 21688 18083 18071 21675 14470 14468 18109 14506 36142 32538 36142 10868 7261 14467 18083 18072 14469 14470 10868 86645 83040 75841 72232 61433 57826 68630 65027 57829 54223 25321 21713 18099 14495 21702 18098 7254 3650 14469 10867 18070 14468 28879 25272 18068 14462 32477 28874 28925 10852 14458 3693 7307 50616 54230 108353 108355 7227 7272 7359 21771 39755 7253 39758 39759 36156 39747
57815 50610 43398 61443 108345 115569 119185 7285 14464 3605 0 90257 32571 47007 104731 108359 10884 7255 7266 68691 72294 57844 57820 97465 101180 50621 47008 28928 18103 21677 10876 14503 25323 7232 7221 111966 3618 57829 61425 65065 3614 72296 75909 7268 14477 28955 14507 32571 14496 14472 39777 14496 25342 14491 14496 36173 25350 14475 39777 18125 32561 14494 10895 28956 21734 14499 75945 28934 61421 68651 57850 57851 57852 68640 65036 65085 61459 50611 54230 101128 97492 101094 104684 111969 111951 101080 93863 97470 90260 93862 97476 93863 93863 93863 90256 90247 90254 115485 101069 111968 111965 104675 104673 111884 108278 115488 111883 93863 97482 101070 97472 93861 90260 90259 101083 93869 97481 28945 10872 86654 83044 79439 83047 72253 65031 68633 72237 54227 50618 54221 54211 57825 57815 54213 47004 50629 25327 28960 25335 21726 18105 14493 14457 10853 10857 7240 28933 32536 54213 50610 39788 47002 43393 46998 43393 36181 39784 43385 39783 46990 43385 36177 39786 21708 21706 21709 25275 21707 21708 28887 25278 18075 21682 18083 14478 18078 21682 18075 18073 14504 10901 32537 28933 32537 14473 10866 18072 14478 18085 18074 10865 7263 90250 86645 79446 75837 65038 61431 72235 68632 61434 57828 21716 18108 14494 10890 18097 14493 10859 7255 18074 14472 21675 18073 32484 28877 21673 18067 36082 32479 32530 14457 18063 7298 10912 54221 57835 111958 111960 3622 3667 10964 18166 36150 3648 36153 36154 32551 36142
61276 54071 46859 64904 18095 25319 28935 97542 97511 86652 90257 0 57686 68509 14481 18109 82978 83002 82991 57706 61309 46859 50484 7208 10930 39636 43249 64899 90197 97492 101133 104760 115580 83025 83036 21716 93875 54070 54089 57729 93871 61311 64924 82989 75784 82962 79372 86578 79366 75785 93784 75761 79349 75766 75765 90180 79357 75782 93784 72132 86568 75763 79406 82963 75741 79389 64960 119191 64882 61315 46865 46866 46867 61304 57700 54100 50474 46882 43245 10878 7242 10844 14427 21719 21701 10823 3613 7220 3 3605 7219 3606 3606 3613 6 11 4 25228 10812 21718 21715 14418 14416 21627 18021 25231 21626 3606 7225 10813 7215 3604 9 2 10832 3618 7230 82952 79385 3603 7213 10818 14426 25250 25226 21630 18020 50468 46859 50462 57672 54066 57686 57674 50465 54090 64930 61297 72140 68531 90199 86587 90250 86646 86650 83033 119190 122793 50484 54092 50469 50463 54073 57678 64895 54076 64885 61280 57678 64885 61280 61292 64901 93802 93800 93803 97405 93801 93802 104702 101093 101096 104703 108340 104735 104723 108327 101122 101120 104761 101158 122794 119190 122794 90288 86681 101119 104735 104724 101121 101122 97520 7218 3613 18029 14420 32433 28826 25228 21625 36035 32429 111973 108365 104751 101147 108354 104750 93906 90302 93889 90287 97490 93888 104614 101007 97400 93803 108212 104609 68501 90250 93856 83023 86637 36036 39650 21708 21710 93879 93924 86689 108423 126407 93905 126410 126411 122808 126399
25244 18039 10827 28872 75774 82998 86614 39856 39825 28966 32571 57686 0 14436 72160 75788 25292 25316 25305 36120 39723 25273 25249 64894 68609 18050 14437 7213 32511 39806 43447 47074 57894 25339 25350 79395 36189 25258 28854 32494 36185 39725 43338 25303 18098 25276 21686 28892 21680 18099 36098 18075 21663 18080 18079 32494 21671 18096 36098 14446 28882 18077 21720 25277 18055 21703 43374 61505 28850 36080 25279 25280 25281 36069 32465 32514 28888 18040 21659 68557 64921 68523 72113 79398 79380 68509 61292 64899 57689 61291 64905 61292 61292 61292 57685 57676 57683 82914 68498 79397 79394 72104 72102 79313 75707 82917 79312 61292 64911 68499 64901 61290 57689 57688 68512 61298 64910 25266 21699 54083 50473 46868 50476 39682 32460 36062 39666 21656 18047 21650 21640 25254 25244 21642 14433 18058 7244 3611 14454 10845 32513 28901 32564 28960 28964 25347 61504 65107 21642 18039 7217 14431 10822 14427 10822 3610 7213 10814 7212 14419 10814 3606 7215 36116 36114 36117 39719 36115 36116 47016 43407 43410 47017 50654 47049 47037 50641 43436 43434 47075 43472 65108 61504 65108 32602 28995 43433 47049 47038 43435 43436 39834 57679 54074 46875 43266 32467 28860 39664 36061 28863 25257 54287 50679 47065 43461 50668 47064 36220 32616 36203 32601 39804 36202 46928 43321 39714 36117 50526 46923 10815 32564 36170 25337 28951 21650 25264 79387 79389 36193 36238 29003 50737 68721 36219 68724 68725 65122 68713
36067 28862 21650 39695 86597 93821 97437 54292 54261 43402 47007 68509 14436 0 82983 86611 39728 39752 39741 46943 50546 36096 36072 75717 79432 28873 25260 21649 46947 54242 57883 61510 72330 39775 39786 90218 50625 36081 39677 43317 50621 50548 54161 39739 32534 39712 36122 43328 36116 32535 50534 32511 36099 32516 32515 46930 36107 32532 50534 28882 43318 32513 36156 39713 32491 36139 54197 75941 39673 46903 36102 36103 36104 46892 43288 43337 39711 28863 32482 79380 75744 79346 82936 90221 90203 79332 72115 75722 68512 72114 75728 72115 72115 72115 68508 68499 68506 93737 79321 90220 90217 82927 82925 90136 86530 93740 90135 72115 75734 79322 75724 72113 68512 68511 79335 72121 75733 39702 36135 64906 61296 57691 61299 50505 43283 46885 50489 32479 28870 32473 32463 36077 36067 32465 25256 28881 21680 18047 28890 25281 46949 43337 47000 43396 43400 39783 75940 79543 32465 28862 18040 25254 21645 25250 3614 14433 7223 14433 10831 10834 7229 10830 14439 50552 50550 50553 54155 50551 50552 61452 57843 57846 61453 65090 61485 61473 65077 57872 57870 61511 57908 79544 75940 79544 47038 43431 57869 61485 61474 57871 57872 54270 68502 64897 57698 54089 43290 39683 50487 46884 39686 36080 68723 65115 61501 57897 65104 61500 50656 47052 50639 47037 54240 50638 61364 57757 54150 50553 64962 61359 25251 47000 50606 39773 43387 32473 36087 90210 90212 50629 50674 43439 65173 83157 50655 83160 83161 79558 83149
75750 68545 61333 79378 3614 10838 14454 112016 111985 101126 104731 14481 72160 82983 0 3628 97452 97476 97465 72180 75783 61333 64958 10813 10927 54110 57723 79373 104671 111966 115607 119234 130054 97499 97510 7235 108349 68544 68563 72203 108345 75785 79398 97463 90258 97436 93846 101052 93840 90259 108258 90235 93823 90240 90239 104654 93831 90256 108258 86606 101042 90237 93880 97437 90215 93863 79434 133665 79356 75789 61339 61340 61341 75778 72174 68574 64948 61356 57719 3603 7239 10841 14464 7238 7220 14428 10868 14475 14484 14416 18030 14417 18021 18082 14475 14484 14477 25227 7209 7237 7234 14417 14415 21626 18020 25230 21625 14415 18034 10812 18028 14417 14490 14483 25313 18099 21711 97426 93859 18084 21687 25292 28900 39724 39700 36104 32494 64942 61333 64936 72146 68540 72160 72148 64939 68564 79404 75771 86614 83005 104673 101061 104724 101120 101124 97507 133664 137267 64958 68566 64943 64937 68547 72152 79369 68550 79359 75754 72152 79359 75754 75766 79375 108276 108274 108277 111879 108275 108276 119176 115567 115570 119177 122814 119209 119197 122801 115596 115594 119235 115632 137268 133664 137268 104762 101155 115593 119209 119198 115595 115596 111994 21691 18086 32503 28894 46907 43300 39702 36099 50509 46903 126447 122839 119225 115621 122828 119224 108380 104776 108363 104761 111964 108362 119088 115481 111874 108277 122686 119083 82975 104724 108330 97497 101111 50510 54124 7227 7229 108353 108398 101163 122897 140881 108379 140884 140885 137282 140873
79378 72173 64961 83006 7242 7213 10829 115644 115613 104754 108359 18109 75788 86611 3628 0 101080 101104 101093 75808 79411 64961 68586 14441 14555 57738 61351 83001 108299 115594 119235 122862 133682 101127 101138 10863 111977 72172 72191 75831 111973 79413 83026 101091 93886 101064 97474 104680 97468 93887 111886 93863 97451 93868 93867 108282 97459 93884 111886 90234 104670 93865 97508 101065 93843 97491 83062 137293 82984 79417 64967 64968 64969 79406 75802 72202 68576 64984 61347 7231 10867 14469 18092 3610 7229 18056 14496 18103 18112 18044 21658 18045 21649 21710 18103 18112 18105 28855 10837 10865 10862 18045 18043 25254 21648 28858 25253 18043 21662 14440 21656 18045 18118 18111 28941 21727 25339 101054 97487 21712 25315 28920 32528 43352 43328 39732 36122 68570 64961 68564 75774 72168 75788 75776 68567 72192 83032 79399 90242 86633 108301 104689 108352 104748 104752 101135 137292 140895 68586 72194 68571 68565 72175 75780 82997 72178 82987 79382 75780 82987 79382 79394 83003 111904 111902 111905 115507 111903 111904 122804 119195 119198 122805 126442 122837 122825 126429 119224 119222 122863 119260 140896 137292 140896 108390 104783 119221 122837 122826 119223 119224 115622 25319 21714 36131 32522 50535 46928 43330 39727 54137 50531 130075 126467 122853 119249 126456 122852 112008 108404 111991 108389 115592 111990 122716 119109 115502 111905 126314 122711 86603 108352 111958 101125 104739 54138 57752 10855 10857 111981 112026 104791 126525 144509 112007 144512 144513 140910 144501
50536 43331 36119 54164 101066 108290 111906 18169 18138 7279 10884 82978 25292 39728 97452 101080 0 3629 3640 61412 65015 50565 50541 90186 93901 43342 39729 21649 7219 18119 21760 25387 36207 3652 3663 104687 14502 50550 54146 57786 14498 65017 68630 3642 7240 21676 7223 25292 3612 7241 32498 7217 18063 7222 7221 28894 18071 7238 32498 10846 25282 7219 7269 21677 14455 10845 68666 39818 54142 61372 50571 50572 50573 61361 57757 57806 54180 43332 46951 93849 90213 93815 97405 104690 104672 93801 86584 90191 82981 86583 90197 86584 86584 86584 82977 82968 82975 108206 93790 104689 104686 97396 97394 104605 100999 108209 104604 86584 90203 93791 90193 86582 82981 82980 93804 86590 90202 21666 7246 79375 75765 72160 75768 64974 57752 61354 64958 46948 43339 46942 46932 50546 50536 46934 39725 43350 18048 21681 18056 14447 7221 3609 10877 7273 7277 3660 39817 43420 46934 43331 32509 39723 36114 39719 36114 28902 32505 36106 32504 39711 36106 28898 32507 10824 10822 10825 14427 10823 10824 25233 21720 21723 25330 28967 25362 25350 28954 21749 21747 25388 21785 43421 39817 43421 10915 7308 21746 25362 25351 21748 21749 18147 82971 79366 72167 68558 57759 54152 64956 61353 54155 50549 32600 28992 25378 21774 28981 25377 14533 10929 14516 10914 18117 14515 21636 18029 14422 10825 25234 21631 25251 10877 14483 3672 7286 46942 50556 104679 104681 14506 14551 7338 29050 47034 14532 47037 47038 43435 47026
50560 43355 36143 54188 101090 108314 111930 14540 14509 3650 7255 83002 25316 39752 97476 101104 3629 0 11 61436 65039 50589 50565 90210 93925 43366 39753 21673 10848 14490 18131 21758 32578 23 34 104711 10873 50574 54170 57810 10869 65041 68654 13 7222 21700 7252 25316 7241 7217 32522 7241 18087 7236 7241 28918 18095 7220 32522 10870 25306 7239 3640 21701 14479 7244 68690 36189 54166 61396 50595 50596 50597 61385 57781 57830 54204 43356 46975 93873 90237 93839 97429 104714 104696 93825 86608 90215 83005 86607 90221 86608 86608 86608 83001 82992 82999 108230 93814 104713 104710 97420 97418 104629 101023 108233 104628 86608 90227 93815 90217 86606 83005 83004 93828 86614 90226 21690 3617 79399 75789 72184 75792 64998 57776 61378 64982 46972 43363 46966 46956 50570 50560 46958 39749 43374 18072 21705 18080 14471 10850 7238 7248 3644 3648 31 36188 39791 46958 43355 32533 39747 36138 39743 36138 28926 32529 36130 32528 39735 36130 28922 32531 14453 14451 14454 18056 14452 14453 21700 18091 18094 21701 25338 21733 21721 25325 18120 18118 21759 18156 39792 36188 39792 7286 3679 18117 21733 21722 18119 18120 14518 82995 79390 72191 68582 57783 54176 64980 61377 54179 50573 28971 25363 21749 18145 25352 21748 10904 7300 10887 7285 14488 10886 25265 21658 14464 10858 28863 25260 25275 7248 10854 43 3657 46966 50580 104703 104705 10877 10922 3709 25421 43405 10903 43408 43409 39806 43397
50549 43344 36132 54177 101079 108303 111919 14551 14520 3661 7266 82991 25305 39741 97465 101093 3640 11 0 61425 65028 50578 50554 90199 93914 43355 39742 21662 10859 14501 18142 21769 32589 34 45 104700 10884 50563 54159 57799 10880 65030 68643 2 7211 21689 7241 25305 7252 7206 32511 7230 18076 7225 7230 28907 18084 7209 32511 10859 25295 7228 3629 21690 14468 7233 68679 36200 54155 61385 50584 50585 50586 61374 57770 57819 54193 43345 46964 93862 90226 93828 97418 104703 104685 93814 86597 90204 82994 86596 90210 86597 86597 86597 82990 82981 82988 108219 93803 104702 104699 97409 97407 104618 101012 108222 104617 86597 90216 93804 90206 86595 82994 82993 93817 86603 90215 21679 3606 79388 75778 72173 75781 64987 57765 61367 64971 46961 43352 46955 46945 50559 50549 46947 39738 43363 18061 21694 18069 14460 10861 7249 7259 3655 3659 42 36199 39802 46947 43344 32522 39736 36127 39732 36127 28915 32518 36119 32517 39724 36119 28911 32520 14464 14462 14465 18067 14463 14464 21711 18102 18105 21712 25349 21744 21732 25336 18131 18129 21770 18167 39803 36199 39803 7297 3690 18128 21744 21733 18130 18131 14529 82984 79379 72180 68571 57772 54165 64969 61366 54168 50562 28982 25374 21760 18156 25363 21759 10915 7311 10898 7296 14499 10897 25276 21669 14475 10869 28874 25271 25264 7259 10865 32 3646 46955 50569 104692 104694 10888 10933 3698 25432 43416 10914 43419 43420 39817 43408
39710 32505 25293 43338 75794 83018 86634 75976 75945 65086 68691 57706 36120 46943 72180 75808 61412 61436 61425 0 3603 10847 14472 64914 68629 18070 21683 43333 68631 75926 79567 83194 94014 61459 61470 79415 72309 32504 18077 21717 72305 3605 7218 61423 54218 61396 57806 65012 57800 54219 72218 54195 57783 54200 54199 68614 57791 54216 72218 50566 65002 54197 57840 61397 54175 57823 7254 97625 43316 25303 10853 10854 10855 25292 21688 3606 7232 18098 14461 68577 64941 68543 72133 79418 79400 68529 61312 64919 57709 61311 64925 61312 61312 61312 57705 57696 57703 82934 68518 79417 79414 72124 72122 79333 75727 82937 79332 61312 64931 68519 64921 61310 57709 57708 68532 61318 64930 61386 57819 54103 50493 46888 50496 39702 32480 36082 39686 28902 25293 28896 36106 32500 36120 36108 28899 32524 43364 39731 50574 46965 68633 65021 68684 65080 65084 61467 97624 101227 18079 21687 28903 21707 25317 25299 43329 32510 43319 39714 36112 43319 39714 39726 43335 72236 72234 72237 75839 72235 72236 83136 79527 79530 83137 86774 83169 83157 86761 79556 79554 83195 79592 101228 97624 101228 68722 65115 79553 83169 83158 79555 79556 75954 57699 54094 46895 43286 32487 28880 39684 36081 28883 25277 90407 86799 83185 79581 86788 83184 72340 68736 72323 68721 75924 72322 83048 79441 75834 72237 86646 83043 46935 68684 72290 61457 65071 21670 25284 79407 79409 72313 72358 65123 86857 104841 72339 104844 104845 101242 104833
43313 36108 28896 46941 79397 86621 90237 79579 79548 68689 72294 61309 39723 50546 75783 79411 65015 65039 65028 3603 0 14450 18075 68517 72232 21673 25286 46936 72234 79529 83170 86797 97617 65062 65073 83018 75912 36107 21680 25320 75908 3602 7215 65026 57821 64999 61409 68615 61403 57822 75821 57798 61386 57803 57802 72217 61394 57819 75821 54169 68605 57800 61443 65000 57778 61426 3651 101228 46919 28906 14456 14457 14458 28895 25291 7209 10835 21701 18064 72180 68544 72146 75736 83021 83003 72132 64915 68522 61312 64914 68528 64915 64915 64915 61308 61299 61306 86537 72121 83020 83017 75727 75725 82936 79330 86540 82935 64915 68534 72122 68524 64913 61312 61311 72135 64921 68533 64989 61422 57706 54096 50491 54099 43305 36083 39685 43289 32505 28896 32499 39709 36103 39723 39711 32502 36127 46967 43334 54177 50568 72236 68624 72287 68683 68687 65070 101227 104830 21682 25290 32506 25310 28920 28902 46932 36113 46922 43317 39715 46922 43317 43329 46938 75839 75837 75840 79442 75838 75839 86739 83130 83133 86740 90377 86772 86760 90364 83159 83157 86798 83195 104831 101227 104831 72325 68718 83156 86772 86761 83158 83159 79557 61302 57697 50498 46889 36090 32483 43287 39684 32486 28880 94010 90402 86788 83184 90391 86787 75943 72339 75926 72324 79527 75925 86651 83044 79437 75840 90249 86646 50538 72287 75893 65060 68674 25273 28887 83010 83012 75916 75961 68726 90460 108444 75942 108447 108448 104845 108436
28863 21658 14446 32491 64947 72171 75787 65129 65098 54239 57844 46859 25273 36096 61333 64961 50565 50589 50578 10847 14450 0 3625 54067 57782 7223 10836 32486 57784 65079 68720 72347 83167 50612 50623 68568 61462 21657 7230 10870 61458 14452 18065 50576 43371 50549 46959 54165 46953 43372 61371 43348 46936 43353 43352 57767 46944 43369 61371 39719 54155 43350 46993 50550 43328 46976 18101 86778 32469 14456 6 7 8 14445 10841 7241 3615 7251 3614 57730 54094 57696 61286 68571 68553 57682 50465 54072 46862 50464 54078 50465 50465 50465 46858 46849 46856 72087 57671 68570 68567 61277 61275 68486 64880 72090 68485 50465 54084 57672 54074 50463 46862 46861 57685 50471 54083 50539 46972 43256 39646 36041 39649 28855 21633 25235 28839 18055 14446 18049 25259 21653 25273 25261 18052 21677 32517 28884 39727 36118 57786 54174 57837 54233 54237 50620 86777 90380 7232 10840 18056 10860 14470 14452 32482 21663 32472 28867 25265 32472 28867 28879 32488 61389 61387 61390 64992 61388 61389 72289 68680 68683 72290 75927 72322 72310 75914 68709 68707 72348 68745 90381 86777 90381 57875 54268 68706 72322 72311 68708 68709 65107 46852 43247 36048 32439 21640 18033 28837 25234 18036 14430 79560 75952 72338 68734 75941 72337 61493 57889 61476 57874 65077 61475 72201 68594 64987 61390 75799 72196 36088 57837 61443 50610 54224 10823 14437 68560 68562 61466 61511 54276 76010 93994 61492 93997 93998 90395 93986
28839 21634 14422 32467 68572 75796 79412 65105 65074 54215 57820 50484 25249 36072 64958 68586 50541 50565 50554 14472 18075 3625 0 57692 61407 10848 14461 32462 57760 65055 68696 72323 83143 50588 50599 72193 61438 25282 3605 7245 61434 18077 21690 50552 43347 50525 46935 54141 46929 43348 61347 43324 46912 43329 43328 57743 46920 43345 61347 39695 54131 43326 46969 50526 43304 46952 21726 86754 32445 10831 3631 3632 3633 10820 7216 10866 7240 7209 7239 61355 57719 61321 64911 72196 72178 61307 54090 57697 50487 54089 57703 54090 54090 54090 50483 50474 50481 75712 61296 72195 72192 64902 64900 72111 68505 75715 72110 54090 57709 61297 57699 54088 50487 50486 61310 54096 57708 50515 46948 46881 43271 39666 43274 32480 25258 28860 32464 21680 18071 21674 25235 25278 28839 25237 18028 21653 32493 28860 39703 36094 57762 54150 57813 54209 54213 50596 86753 90356 3607 7215 18032 10818 14428 10827 32458 21639 32448 28843 25241 32448 28843 28855 32464 61365 61363 61366 64968 61364 61365 72265 68656 68659 72266 75903 72298 72286 75890 68685 68683 72324 68721 90357 86753 90357 57851 54244 68682 72298 72287 68684 68685 65083 50477 46872 39673 36064 25265 21658 32462 28859 21661 18055 79536 75928 72314 68710 75917 72313 61469 57865 61452 57850 65053 61451 72177 68570 64963 61366 75775 72172 36064 57813 61419 50586 54200 14448 18062 72185 72187 61442 61487 54252 75986 93970 61468 93973 93974 90371 93962
68484 61279 54067 72112 14427 21651 25267 104750 104719 93860 97465 7208 64894 75717 10813 14441 90186 90210 90199 64914 68517 54067 57692 0 14534 46844 50457 72107 97405 104700 108341 111968 122788 90233 90244 18048 101083 61278 61297 64937 101079 68519 72132 90197 82992 90170 86580 93786 86574 82993 100992 82969 86557 82974 82973 97388 86565 82990 100992 79340 93776 82971 86614 90171 82949 86597 72168 126399 72090 68523 54073 54074 54075 68512 64908 61308 57682 54090 50453 7210 10846 10842 7219 18051 18033 3615 10821 10821 7205 3603 7217 3604 7208 10816 7214 7219 7212 18020 3604 18050 18047 7210 7208 14419 10813 18023 14418 3602 7221 3605 7215 3604 7213 7206 18036 10822 14434 90160 86593 10811 14421 18026 21634 32458 32434 28838 25228 57676 54067 57670 64880 61274 64894 64882 57673 61298 72138 68505 79348 75739 97407 93795 97458 93854 93858 90241 126398 130001 57692 61300 57677 57671 61281 64886 72103 61284 72093 68488 64886 72093 68488 68500 72109 101010 101008 101011 104613 101009 101010 111910 108301 108304 111911 115548 111943 111931 115535 108330 108328 111969 108366 130002 126398 130002 97496 93889 108327 111943 111932 108329 108330 104728 14426 10821 25237 21628 39641 36034 32436 28833 43243 39637 119181 115573 111959 108355 115562 111958 101114 97510 101097 97495 104698 101096 111822 108215 104608 101011 115420 111817 75709 97458 101064 90231 93845 43244 46858 18040 18042 101087 101132 93897 115631 133615 101113 133618 133619 130016 133607
72199 64994 57782 75827 14541 21765 25381 108465 108434 97575 101180 10930 68609 79432 10927 14555 93901 93925 93914 68629 72232 57782 61407 14534 0 50559 54172 75822 101120 108415 112056 115683 126503 93948 93959 18162 104798 64993 65012 68652 104794 72234 75847 93912 86707 93885 90295 97501 90289 86708 104707 86684 90272 86689 86688 101103 90280 86705 104707 83055 97491 86686 90329 93886 86664 90312 75883 130114 75805 72238 57788 57789 57790 72227 68623 65023 61397 57805 54168 7324 3688 7290 10913 18165 18147 14517 7317 10924 10933 14535 14528 14536 14536 14531 10924 10933 10926 28948 10930 18164 18161 18138 18136 25347 21741 28951 25346 14536 18155 14533 18145 14534 10939 10932 21762 14548 18160 93875 90308 14533 18136 21741 25349 36173 36149 32553 28943 61391 57782 61385 68595 64989 68609 68597 61388 65013 75853 72220 83063 79454 101122 97510 101173 97569 97573 93956 130113 133716 61407 65015 61392 61386 64996 68601 75818 64999 75808 72203 68601 75808 72203 72215 75824 104725 104723 104726 108328 104724 104725 115625 112016 112019 115626 119263 115658 115646 119250 112045 112043 115684 112081 133717 130113 133717 101211 97604 112042 115658 115647 112044 112045 108443 18140 14535 28952 25343 43356 39749 36151 32548 46958 43352 122896 119288 115674 112070 119277 115673 104829 101225 104812 101210 108413 104811 115537 111930 108323 104726 119135 115532 79424 101173 104779 93946 97560 46959 50573 18154 18156 104802 104847 97612 119346 137330 104828 137333 137334 133731 137322
21640 14435 7223 25268 57724 64948 68564 57906 57875 47016 50621 39636 18050 28873 54110 57738 43342 43366 43355 18070 21673 7223 10848 46844 50559 0 3613 25263 50561 57856 61497 65124 75944 43389 43400 61345 54239 14434 14453 18093 54235 21675 25288 43353 36148 43326 39736 46942 39730 36149 54148 36125 39713 36130 36129 50544 39721 36146 54148 32496 46932 36127 39770 43327 36105 39753 25324 79555 25246 21679 7229 7230 7231 21668 18064 14464 10838 7246 3609 50507 46871 50473 54063 61348 61330 50459 43242 46849 39639 43241 46855 43242 43242 43242 39635 39626 39633 64864 50448 61347 61344 54054 54052 61263 57657 64867 61262 43242 46861 50449 46851 43240 39639 39638 50462 43248 46860 43316 39749 36033 32423 28818 32426 21632 14410 18012 21616 10832 7223 10826 18036 14430 18050 18038 10829 14454 25294 21661 32504 28895 50563 46951 50614 47010 47014 43397 79554 83157 10848 14456 10833 10827 14437 18042 25259 14440 25249 21644 18042 25249 21644 21656 25265 54166 54164 54167 57769 54165 54166 65066 61457 61460 65067 68704 65099 65087 68691 61486 61484 65125 61522 83158 79554 83158 50652 47045 61483 65099 65088 61485 61486 57884 39629 36024 28825 25216 14417 10810 21614 18011 10813 7207 72337 68729 65115 61511 68718 65114 54270 50666 54253 50651 57854 54252 64978 61371 57764 54167 68576 64973 28865 50614 54220 43387 47001 3600 7214 61337 61339 54243 54288 47053 68787 86771 54269 86774 86775 83172 86763
18027 10822 3610 21655 61337 68561 72177 54293 54262 43403 47008 43249 14437 25260 57723 61351 39729 39753 39742 21683 25286 10836 14461 50457 54172 3613 0 21650 46948 54243 57884 61511 72331 39776 39787 64958 50626 10821 18066 21706 50622 25288 28901 39740 32535 39713 36123 43329 36117 32536 50535 32512 36100 32517 32516 46931 36108 32533 50535 28883 43319 32514 36157 39714 32492 36140 28937 75942 21633 25292 10842 10843 10844 25281 21677 18077 14451 10823 7222 54120 50484 54086 57676 64961 64943 54072 46855 50462 43252 46854 50468 46855 46855 46855 43248 43239 43246 68477 54061 64960 64957 57667 57665 64876 61270 68480 64875 46855 50474 54062 50464 46853 43252 43251 54075 46861 50473 39703 36136 39646 36036 32431 36039 25245 18023 21625 25229 7219 3610 7213 14423 10817 14437 14425 7216 10841 21681 18048 28891 25282 46950 43338 47001 43397 43401 39784 75941 79544 14425 18033 7220 7214 10824 14429 21646 10827 21636 18031 14429 21636 18031 18043 21652 50553 50551 50554 54156 50552 50553 61453 57844 57847 61454 65091 61486 61474 65078 57873 57871 61512 57909 79545 75941 79545 47039 43432 57870 61486 61475 57872 57873 54271 43242 39637 32438 28829 18030 14423 25227 21624 14426 10820 68724 65116 61502 57898 65105 61501 50657 47053 50640 47038 54241 50639 61365 57758 54151 50554 64963 61360 25252 47001 50607 39774 43388 7213 10827 64950 64952 50630 50675 43440 65174 83158 50656 83161 83162 79559 83150
32457 25252 18040 36085 82987 90211 93827 36213 36182 25323 28928 64899 7213 21649 79373 83001 21649 21673 21662 43333 46936 32486 32462 72107 75822 25263 21650 0 28868 36163 39804 43431 54251 21696 21707 86608 32546 32471 36067 39707 32542 46938 50551 21660 14455 21633 18043 25249 18037 14456 32455 14432 18020 14437 14436 28851 18028 14453 32455 10803 25239 14434 18077 21634 14412 18060 50587 57862 36063 43293 32492 32493 32494 43282 39678 39727 36101 25253 28872 75770 72134 75736 79326 86611 86593 75722 68505 72112 64902 68504 72118 68505 68505 68505 64898 64889 64896 90127 75711 86610 86607 79317 79315 86526 82920 90130 86525 68505 72124 75712 72114 68503 64902 64901 75725 68511 72123 21623 18056 61296 57686 54081 57689 46895 39673 43275 46879 28869 25260 28863 28853 32467 32457 28855 21646 25271 3601 3602 10811 7202 28870 25258 28921 25317 25321 21704 57861 61464 28855 25252 14430 21644 18035 21640 18035 10823 14426 18027 14425 21632 18027 10819 14428 32473 32471 32474 36076 32472 32473 43373 39764 39767 43374 47011 43406 43394 46998 39793 39791 43432 39829 61465 57861 61465 28959 25352 39790 43406 43395 39792 39793 36191 64892 61287 54088 50479 39680 36073 46877 43274 36076 32470 50644 47036 43422 39818 47025 43421 32577 28973 32560 28958 36161 32559 43285 39678 36071 32474 46883 43280 3602 28921 32527 21694 25308 28863 32477 86600 86602 32550 32595 25360 47094 65078 32576 65081 65082 61479 65070
57755 50550 43338 61383 108285 115509 119125 25388 25357 14498 18103 90197 32511 46947 104671 108299 7219 10848 10859 68631 72234 57784 57760 97405 101120 50561 46948 28868 0 25224 28979 32606 43426 10871 10882 111906 21721 57769 61365 65005 21717 72236 75849 10861 14459 28895 14442 32511 10831 14460 39717 14436 25282 14441 14440 36113 25290 14457 39717 18065 32501 14438 14488 28896 21674 18064 75885 47037 61361 68591 57790 57791 57792 68580 64976 65025 61399 50551 54170 101068 97432 101034 104624 111909 111891 101020 93803 97410 90200 93802 97416 93803 93803 93803 90196 90187 90194 115425 101009 111908 111905 104615 104613 111824 108218 115428 111823 93803 97422 101010 97412 93801 90200 90199 101023 93809 97421 28885 14465 86594 82984 79379 82987 72193 64971 68573 72177 54167 50558 54161 54151 57765 57755 54153 46944 50569 25267 28900 25275 21666 7222 3610 14424 10820 14496 10879 47036 50639 54153 50550 39728 46942 43333 46938 43333 36121 39724 43325 39723 46930 43325 36117 39726 3605 3603 3606 7208 3604 3605 18014 21623 28828 32435 36186 32581 32569 36173 28968 28966 32607 29004 50640 47036 50640 18134 14527 28965 32581 32570 28967 28968 25366 90190 86585 79386 75777 64978 61371 72175 68572 61374 57768 39819 36211 32597 28993 36200 32596 21752 18148 21735 18133 25336 21734 14417 10810 7203 3606 18015 14412 32470 7216 10822 10891 14505 54161 57775 111898 111900 21725 21770 14557 36269 54253 21751 54256 54257 50654 54245
65050 57845 50633 68678 115580 122804 126420 28962 7215 18072 21677 97492 39806 54242 111966 115594 18119 14490 14501 75926 79529 65079 65055 104700 108415 57856 54243 36163 25224 0 21629 36180 47000 14467 14456 119201 25295 65064 68660 72300 25291 79531 83144 14503 21712 36190 21742 39806 21731 21707 47012 21731 32577 21726 21731 43408 32585 21710 47012 25360 39796 21729 18130 36191 28969 21734 83180 50611 68656 75886 65085 65086 65087 75875 72271 72320 68694 57846 61465 108363 104727 108329 111919 119204 119186 108315 101098 104705 97495 101097 104711 101098 101098 101098 97491 97482 97489 122720 108304 119203 119200 111910 111908 119119 115513 122723 119118 101098 104717 108305 104707 101096 97495 97494 108318 101104 104716 36180 18107 93889 90279 86674 90282 79488 72266 75868 79472 61462 57853 61456 61446 65060 65050 61448 54239 57864 32562 36195 32570 28961 25340 21728 21692 18088 18092 14475 50610 54213 61448 57845 47023 54237 50628 54233 50628 43416 47019 50620 47018 54225 50620 43412 47021 21621 21621 21620 18016 21620 21619 7210 3601 3604 7211 28836 25231 14427 18031 10826 10824 36181 32578 54214 50610 54214 14418 10811 10823 18027 14428 10825 28844 25242 97485 93880 86681 83072 72273 68666 79470 75867 68669 65063 43393 39785 36039 32435 32436 28832 10820 14424 10807 7205 7206 3604 18021 14414 21618 25224 14415 10812 39765 21692 25298 14533 18147 61456 65070 119193 119195 25299 25344 18199 39843 57827 25325 57830 57831 54228 57819
68691 61486 54274 72319 119221 126445 130061 10933 14414 14481 10876 101133 43447 57883 115607 119235 21760 18131 18142 79567 83170 68720 68696 108341 112056 61497 57884 39804 28979 21629 0 18151 28971 18108 18097 122842 7266 68705 72301 75941 7262 83172 86785 18144 25353 39831 25383 43447 25372 25348 50653 25372 36218 25367 25372 47049 36226 25351 50653 29001 43437 25370 21771 39832 32610 25375 86821 32582 72297 79527 68726 68727 68728 79516 75912 75961 72335 61487 65106 112004 108368 111970 115560 122845 122827 111956 104739 108346 101136 104738 108352 104739 104739 104739 101132 101123 101130 126361 111945 122844 122841 115551 115549 122760 119154 126364 122759 104739 108358 111946 108348 104737 101136 101135 111959 104745 108357 39821 21748 97530 93920 90315 93923 83129 75907 79509 83113 65103 61494 65097 65087 68701 68691 65089 57880 61505 36203 39836 36211 32602 28981 25369 25333 21729 21733 18116 32581 36184 65089 61486 50664 57878 54269 57874 54269 47057 50660 54261 50659 57866 54261 47053 50662 32584 32582 32585 36151 32583 32584 28839 25230 18025 21632 7207 3602 7202 10806 10807 10805 18152 14549 36185 32581 36185 25349 21742 10806 3602 7209 10804 7215 3613 101126 97521 90322 86713 75914 72307 83111 79508 72310 68704 25364 21756 14410 10806 10807 7203 18019 18131 28950 25348 28835 25233 39650 36043 32549 28943 36044 32441 43406 25333 28939 18174 21788 65097 68711 122834 122836 7270 14543 21840 21814 39798 7296 39801 39802 36199 39790
72318 65113 57901 75946 122848 130072 133688 7218 28967 18108 14503 104760 47074 61510 119234 122862 25387 21758 21769 83194 86797 72347 72323 111968 115683 65124 61511 43431 32606 36180 18151 0 10820 21735 21724 126469 10885 72332 75928 79568 10889 86799 90412 21771 28980 43458 29010 47074 28999 28975 54280 28999 39845 28994 28999 50676 39853 28978 54280 32628 47064 28997 25398 43459 36237 29002 90448 14431 75924 83154 72353 72354 72355 83143 79539 79588 75962 65114 68733 115631 111995 115597 119187 126472 126454 115583 108366 111973 104763 108365 111979 108366 108366 108366 104759 104750 104757 129988 115572 126471 126468 119178 119176 126387 122781 129991 126386 108366 111985 115573 111975 108364 104763 104762 115586 108372 111984 43448 25375 101157 97547 93942 97550 86756 79534 83136 86740 68730 65121 68724 68714 72328 72318 68716 61507 65132 39830 43463 39838 36229 32608 28996 28960 25356 25360 21743 14430 18033 68716 65113 54291 61505 57896 61501 57896 50684 54287 57888 54286 61493 57888 50680 54289 36211 36209 36212 39778 36210 36211 43390 39781 32578 36185 21632 18027 25353 28957 28958 28956 7205 3602 18034 14430 18034 28976 25369 28957 21753 25360 28955 18140 14538 104753 101148 93949 90340 79541 75934 86738 83135 75937 72331 7213 3605 14427 10823 18030 14426 25362 21758 32577 28975 36178 32576 46987 43380 36176 32570 50585 46982 47033 28960 32566 21801 25415 68724 72338 126461 126463 10881 18170 25467 3663 21647 10915 21650 21651 18048 21639
83138 75933 68721 86766 133668 140892 144508 18038 39787 28928 25323 115580 57894 72330 130054 133682 36207 32578 32589 94014 97617 83167 83143 122788 126503 75944 72331 54251 43426 47000 28971 10820 0 32555 32544 137289 21705 83152 86748 90388 21709 97619 101232 32591 39800 54278 39830 57894 39819 39795 65100 39819 50665 39814 39819 61496 50673 39798 65100 43448 57884 39817 36218 54279 47057 39822 101268 3611 86744 93974 83173 83174 83175 93963 90359 90408 86782 75934 79553 126451 122815 126417 130007 137292 137274 126403 119186 122793 115583 119185 122799 119186 119186 119186 115579 115570 115577 140808 126392 137291 137288 129998 129996 137207 133601 140811 137206 119186 122805 126393 122795 119184 115583 115582 126406 119192 122804 54268 36195 111977 108367 104762 108370 97576 90354 93956 97560 79550 75941 79544 79534 83148 83138 79536 72327 75952 50650 54283 50658 47049 43428 39816 39780 36176 36180 32563 3610 7213 79536 75933 65111 72325 68716 72321 68716 61504 65107 68708 65106 72313 68708 61500 65109 47031 47029 47032 50598 47030 47031 54210 50601 43398 47005 32452 28847 36173 39777 39778 39776 18025 14422 7214 3610 7214 39796 36189 39777 32573 36180 39775 28960 25358 115573 111968 104769 101160 90361 86754 97558 93955 86757 83151 3607 7215 25247 21643 28850 25246 36182 32578 43397 39795 46998 43396 57807 54200 46996 43390 61405 57802 57853 39780 43386 32621 36235 79544 83158 137281 137283 21701 28990 36287 14483 10827 21735 10830 10831 7228 10819
50583 43378 36166 54211 101113 108337 111953 14517 14486 3627 7232 83025 25339 39775 97499 101127 3652 23 34 61459 65062 50612 50588 90233 93948 43389 39776 21696 10871 14467 18108 21735 32555 0 11 104734 10850 50597 54193 57833 10846 65064 68677 36 7245 21723 7275 25339 7264 7240 32545 7264 18110 7259 7264 28941 18118 7243 32545 10893 25329 7262 3663 21724 14502 7267 68713 36166 54189 61419 50618 50619 50620 61408 57804 57853 54227 43379 46998 93896 90260 93862 97452 104737 104719 93848 86631 90238 83028 86630 90244 86631 86631 86631 83024 83015 83022 108253 93837 104736 104733 97443 97441 104652 101046 108256 104651 86631 90250 93838 90240 86629 83028 83027 93851 86637 90249 21713 3640 79422 75812 72207 75815 65021 57799 61401 65005 46995 43386 46989 46979 50593 50583 46981 39772 43397 18095 21728 18103 14494 10873 7261 7225 3621 3625 8 36165 39768 46981 43378 32556 39770 36161 39766 36161 28949 32552 36153 32551 39758 36153 28945 32554 14476 14474 14477 18043 14475 14476 21677 18068 18071 21678 25315 21710 21698 25302 18097 18095 21736 18133 39769 36165 39769 7263 3656 18094 21710 21699 18096 18097 14495 83018 79413 72214 68605 57806 54199 65003 61400 54202 50596 28948 25340 21726 18122 25329 21725 10881 7277 10864 7262 14465 10863 25252 21645 14441 10835 28850 25247 25298 7225 10831 66 3680 46989 50603 104726 104728 10854 10899 3732 25398 43382 10880 43385 43386 39783 43374
50594 43389 36177 54222 101124 108348 111964 14506 14475 3616 7221 83036 25350 39786 97510 101138 3663 34 45 61470 65073 50623 50599 90244 93959 43400 39787 21707 10882 14456 18097 21724 32544 11 0 104745 10839 50608 54204 57844 10835 65075 68688 47 7256 21734 7286 25350 7275 7251 32556 7275 18121 7270 7275 28952 18129 7254 32556 10904 25340 7273 3674 21735 14513 7278 68724 36155 54200 61430 50629 50630 50631 61419 57815 57864 54238 43390 47009 93907 90271 93873 97463 104748 104730 93859 86642 90249 83039 86641 90255 86642 86642 86642 83035 83026 83033 108264 93848 104747 104744 97454 97452 104663 101057 108267 104662 86642 90261 93849 90251 86640 83039 83038 93862 86648 90260 21724 3651 79433 75823 72218 75826 65032 57810 61412 65016 47006 43397 47000 46990 50604 50594 46992 39783 43408 18106 21739 18114 14505 10884 7272 7236 3632 3636 19 36154 39757 46992 43389 32567 39781 36172 39777 36172 28960 32563 36164 32562 39769 36164 28956 32565 14487 14485 14488 18054 14486 14487 21666 18057 18060 21667 25304 21699 21687 25291 18086 18084 21725 18122 39758 36154 39758 7252 3645 18083 21699 21688 18085 18086 14484 83029 79424 72225 68616 57817 54210 65014 61411 54213 50607 28937 25329 21715 18111 25318 21714 10870 7266 10853 7251 14454 10852 25263 21656 14452 10846 28861 25258 25309 7236 10842 77 3691 47000 50614 104737 104739 10843 10888 3743 25387 43371 10869 43374 43375 39772 43363
82985 75780 68568 86613 3621 10845 14461 119251 119220 108361 111966 21716 79395 90218 7235 10863 104687 104711 104700 79415 83018 68568 72193 18048 18162 61345 64958 86608 111906 119201 122842 126469 137289 104734 104745 0 115584 75779 75798 79438 115580 83020 86633 104698 97493 104671 101081 108287 101075 97494 115493 97470 101058 97475 97474 111889 101066 97491 115493 93841 108277 97472 101115 104672 97450 101098 86669 140900 86591 83024 68574 68575 68576 83013 79409 75809 72183 68591 64954 10838 14474 18076 21699 10846 7227 21663 18103 21710 21719 21651 25265 21652 25256 25317 21710 21719 21712 32462 14444 4 1 21652 21650 28861 25255 32465 28860 21650 25269 18047 25263 21652 21725 21718 32548 25334 28946 104661 101094 25319 28922 32527 36135 46959 46935 43339 39729 72177 68568 72171 79381 75775 79395 79383 72174 75799 86639 83006 93849 90240 111908 108296 111959 108355 108359 104742 140899 144502 72193 75801 72178 72172 75782 79387 86604 75785 86594 82989 79387 86594 82989 83001 86610 115511 115509 115512 119114 115510 115511 126411 122802 122805 126412 130049 126444 126432 130036 122831 122829 126470 122867 144503 140899 144503 111997 108390 122828 126444 126433 122830 122831 119229 28926 25321 39738 36129 54142 50535 46937 43334 57744 54138 133682 130074 126460 122856 130063 126459 115615 112011 115598 111996 119199 115597 126323 122716 119109 115512 129921 126318 90210 111959 115565 104732 108346 57745 61359 8 7236 115588 115633 108398 130132 148116 115614 148119 148120 144517 148108
61433 54228 47016 65061 111963 119187 122803 3667 18082 7223 3618 93875 36189 50625 108349 111977 14502 10873 10884 72309 75912 61462 61438 101083 104798 54239 50626 32546 21721 25295 7266 10885 21705 10850 10839 115584 0 61447 65043 68683 4 75914 79527 10886 18095 32573 18125 36189 18114 18090 43395 18114 28960 18109 18114 39791 28968 18093 43395 21743 36179 18112 14513 32574 25352 18117 79563 25316 65039 72269 61468 61469 61470 72258 68654 68703 65077 54229 57848 104746 101110 104712 108302 115587 115569 104698 97481 101088 93878 97480 101094 97481 97481 97481 93874 93865 93872 119103 104687 115586 115583 108293 108291 115502 111896 119106 115501 97481 101100 104688 101090 97479 93878 93877 104701 97487 101099 32563 14490 90272 86662 83057 86665 75871 68649 72251 75855 57845 54236 57839 57829 61443 61433 57831 50622 54247 28945 32578 28953 25344 21723 18111 18075 14471 14475 10858 25315 28918 57831 54228 43406 50620 47011 50616 47011 39799 43402 47003 43401 50608 47003 39795 43404 25326 25324 25327 28893 25325 25326 32505 28896 21693 25300 14473 10868 14468 18072 18073 18071 10886 7283 28919 25315 28919 18091 14484 18072 10868 14475 18070 7255 3653 93868 90263 83064 79455 68656 65049 75853 72250 65052 61446 18098 14490 10876 7272 14479 10875 14477 10873 21692 18090 25293 21691 36102 32495 25291 21685 39700 36097 36148 18075 21681 10916 14530 57839 61453 115576 115578 4 7285 14582 14548 32532 30 32535 32536 28933 32524
18040 18037 14431 21668 72158 79382 82998 65114 65083 54224 57829 54070 25258 36081 68544 72172 50550 50574 50563 32504 36107 21657 25282 61278 64993 14434 10821 32471 57769 65064 68705 72332 83152 50597 50608 75779 61447 0 28887 32527 61443 36109 39722 50561 43356 50534 46944 54150 46938 43357 61356 43333 46921 43338 43337 57752 46929 43354 61356 39704 54140 43335 46978 50535 43313 46961 39758 86763 21646 36113 21663 21664 21665 36102 32498 28898 25272 21644 18043 64941 61305 64907 68497 75782 75764 64893 57676 61283 54073 57675 61289 57676 57676 57676 54069 54060 54067 79298 64882 75781 75778 68488 68486 75697 72091 79301 75696 57676 61295 64883 61285 57674 54073 54072 64896 57682 61294 50524 46957 50467 46857 43252 46860 36066 28844 32446 36050 10820 7211 3608 14436 7212 10832 21640 18037 21662 32502 28869 39712 36103 57771 54159 57822 54218 54222 50605 86762 90365 25246 28854 18041 18035 21645 25250 32467 21648 32457 28852 25250 32457 28852 28864 32473 61374 61372 61375 64977 61373 61374 72274 68665 68668 72275 75912 72307 72295 75899 68694 68692 72333 68730 90366 86762 90366 57860 54253 68691 72307 72296 68693 68694 65092 54063 50458 43259 39650 28851 25244 36048 32445 25247 21641 79545 75937 72323 68719 75926 72322 61478 57874 61461 57859 65062 61460 72186 68579 64972 61375 75784 72181 36073 57822 61428 50595 54209 18034 21648 75771 75773 61451 61496 54261 75995 93979 61477 93982 93983 90380 93971
32444 25239 18027 36072 72177 79401 83017 68710 68679 57820 61425 54089 28854 39677 68563 72191 54146 54170 54159 18077 21680 7230 3605 61297 65012 14453 18066 36067 61365 68660 72301 75928 86748 54193 54204 75798 65043 28887 0 3640 65039 21682 25295 54157 46952 54130 50540 57746 50534 46953 64952 46929 50517 46934 46933 61348 50525 46950 64952 43300 57736 46931 50574 54131 46909 50557 25331 90359 36050 7226 7236 7237 7238 7215 3611 14471 10845 10814 10844 64960 61324 64926 68516 75801 75783 64912 57695 61302 54092 57694 61308 57695 57695 57695 54088 54079 54086 79317 64901 75800 75797 68507 68505 75716 72110 79320 75715 57695 61314 64902 61304 57693 54092 54091 64915 57701 61313 54120 50553 50486 46876 43271 46879 36085 28863 32465 36069 25285 21676 25279 28840 28883 32444 28842 21633 25258 36098 32465 43308 39699 61367 57755 61418 57814 57818 54201 90358 93961 7212 10820 21637 14423 18033 14432 36063 25244 36053 32448 28846 36053 32448 32460 36069 64970 64968 64971 68573 64969 64970 75870 72261 72264 75871 79508 75903 75891 79495 72290 72288 75929 72326 93962 90358 93962 61456 57849 72287 75903 75892 72289 72290 68688 54082 50477 43278 39669 28870 25263 36067 32464 25266 21660 83141 79533 75919 72315 79522 75918 65074 61470 65057 61455 68658 65056 75782 72175 68568 64971 79380 75777 39669 61418 65024 54191 57805 18053 21667 75790 75792 65047 65092 57857 79591 97575 65073 97578 97579 93976 97567
36084 28879 21667 39712 75817 83041 86657 72350 72319 61460 65065 57729 32494 43317 72203 75831 57786 57810 57799 21717 25320 10870 7245 64937 68652 18093 21706 39707 65005 72300 75941 79568 90388 57833 57844 79438 68683 32527 3640 0 68679 25322 28935 57797 50592 57770 54180 61386 54174 50593 68592 50569 54157 50574 50573 64988 54165 50590 68592 46940 61376 50571 54214 57771 50549 54197 28971 93999 39690 10866 10876 10877 10878 10855 7251 18111 14485 14454 14484 68600 64964 68566 72156 79441 79423 68552 61335 64942 57732 61334 64948 61335 61335 61335 57728 57719 57726 82957 68541 79440 79437 72147 72145 79356 75750 82960 79355 61335 64954 68542 64944 61333 57732 57731 68555 61341 64953 57760 54193 54126 50516 46911 50519 39725 32503 36105 39709 28925 25316 28919 32480 32523 36084 32482 25273 28898 39738 36105 46948 43339 65007 61395 65058 61454 61458 57841 93998 97601 10852 14460 25277 18063 21673 18072 39703 28884 39693 36088 32486 39693 36088 36100 39709 68610 68608 68611 72213 68609 68610 79510 75901 75904 79511 83148 79543 79531 83135 75930 75928 79569 75966 97602 93998 97602 65096 61489 75927 79543 79532 75929 75930 72328 57722 54117 46918 43309 32510 28903 39707 36104 28906 25300 86781 83173 79559 75955 83162 79558 68714 65110 68697 65095 72298 68696 79422 75815 72208 68611 83020 79417 43309 65058 68664 57831 61445 21693 25307 79430 79432 68687 68732 61497 83231 101215 68713 101218 101219 97616 101207
61429 54224 47012 65057 111959 119183 122799 3671 18078 7219 3614 93871 36185 50621 108345 111973 14498 10869 10880 72305 75908 61458 61434 101079 104794 54235 50622 32542 21717 25291 7262 10889 21709 10846 10835 115580 4 61443 65039 68679 0 75910 79523 10882 18091 32569 18121 36185 18110 18086 43391 18110 28956 18105 18110 39787 28964 18089 43391 21739 36175 18108 14509 32570 25348 18113 79559 25320 65035 72265 61464 61465 61466 72254 68650 68699 65073 54225 57844 104742 101106 104708 108298 115583 115565 104694 97477 101084 93874 97476 101090 97477 97477 97477 93870 93861 93868 119099 104683 115582 115579 108289 108287 115498 111892 119102 115497 97477 101096 104684 101086 97475 93874 93873 104697 97483 101095 32559 14486 90268 86658 83053 86661 75867 68645 72247 75851 57841 54232 57835 57825 61439 61429 57827 50618 54243 28941 32574 28949 25340 21719 18107 18071 14467 14471 10854 25319 28922 57827 54224 43402 50616 47007 50612 47007 39795 43398 46999 43397 50604 46999 39791 43400 25322 25320 25323 28889 25321 25322 32501 28892 21689 25296 14469 10864 14464 18068 18069 18067 10890 7287 28923 25319 28923 18087 14480 18068 10864 14471 18066 7251 3649 93864 90259 83060 79451 68652 65045 75849 72246 65048 61442 18102 14494 10880 7276 14483 10879 14473 10869 21688 18086 25289 21687 36098 32491 25287 21681 39696 36093 36144 18071 21677 10912 14526 57835 61449 115572 115574 8 7281 14578 14552 32536 34 32539 32540 28937 32528
43315 36110 28898 46943 79399 86623 90239 79581 79550 68691 72296 61311 39725 50548 75785 79413 65017 65041 65030 3605 3602 14452 18077 68519 72234 21675 25288 46938 72236 79531 83172 86799 97619 65064 65075 83020 75914 36109 21682 25322 75910 0 3613 65028 57823 65001 61411 68617 61405 57824 75823 57800 61388 57805 57804 72219 61396 57821 75823 54171 68607 57802 61445 65002 57780 61428 7253 101230 46921 28908 14458 14459 14460 28897 25293 7211 10837 21703 18066 72182 68546 72148 75738 83023 83005 72134 64917 68524 61314 64916 68530 64917 64917 64917 61310 61301 61308 86539 72123 83022 83019 75729 75727 82938 79332 86542 82937 64917 68536 72124 68526 64915 61314 61313 72137 64923 68535 64991 61424 57708 54098 50493 54101 43307 36085 39687 43291 32507 28898 32501 39711 36105 39725 39713 32504 36129 46969 43336 54179 50570 72238 68626 72289 68685 68689 65072 101229 104832 21684 25292 32508 25312 28922 28904 46934 36115 46924 43319 39717 46924 43319 43331 46940 75841 75839 75842 79444 75840 75841 86741 83132 83135 86742 90379 86774 86762 90366 83161 83159 86800 83197 104833 101229 104833 72327 68720 83158 86774 86763 83160 83161 79559 61304 57699 50500 46891 36092 32485 43289 39686 32488 28882 94012 90404 86790 83186 90393 86789 75945 72341 75928 72326 79529 75927 86653 83046 79439 75842 90251 86648 50540 72289 75895 65062 68676 25275 28889 83012 83014 75918 75963 68728 90462 108446 75944 108449 108450 104847 108438
46928 39723 32511 50556 83012 90236 93852 83194 83163 72304 75909 64924 43338 54161 79398 83026 68630 68654 68643 7218 7215 18065 21690 72132 75847 25288 28901 50551 75849 83144 86785 90412 101232 68677 68688 86633 79527 39722 25295 28935 79523 3613 0 68641 61436 68614 65024 72230 65018 61437 79436 61413 65001 61418 61417 75832 65009 61434 79436 57784 72220 61415 65058 68615 61393 65041 10866 104843 50534 32521 18071 18072 18073 32510 28906 10824 14450 25316 21679 75795 72159 75761 79351 86636 86618 75747 68530 72137 64927 68529 72143 68530 68530 68530 64923 64914 64921 90152 75736 86635 86632 79342 79340 86551 82945 90155 86550 68530 72149 75737 72139 68528 64927 64926 75750 68536 72148 68604 65037 61321 57711 54106 57714 46920 39698 43300 46904 36120 32511 36114 43324 39718 43338 43326 36117 39742 50582 46949 57792 54183 75851 72239 75902 72298 72302 68685 104842 108445 25297 28905 36121 28925 32535 32517 50547 39728 50537 46932 43330 50537 46932 46944 50553 79454 79452 79455 83057 79453 79454 90354 86745 86748 90355 93992 90387 90375 93979 86774 86772 90413 86810 108446 104842 108446 75940 72333 86771 90387 90376 86773 86774 83172 64917 61312 54113 50504 39705 36098 46902 43299 36101 32495 97625 94017 90403 86799 94006 90402 79558 75954 79541 75939 83142 79540 90266 86659 83052 79455 93864 90261 54153 75902 79508 68675 72289 28888 32502 86625 86627 79531 79576 72341 94075 112059 79557 112062 112063 108460 112051
50547 43342 36130 54175 101077 108301 111917 14553 14522 3663 7268 82989 25303 39739 97463 101091 3642 13 2 61423 65026 50576 50552 90197 93912 43353 39740 21660 10861 14503 18144 21771 32591 36 47 104698 10886 50561 54157 57797 10882 65028 68641 0 7209 21687 7239 25303 7254 7204 32509 7228 18074 7223 7228 28905 18082 7207 32509 10857 25293 7226 3627 21688 14466 7231 68677 36202 54153 61383 50582 50583 50584 61372 57768 57817 54191 43343 46962 93860 90224 93826 97416 104701 104683 93812 86595 90202 82992 86594 90208 86595 86595 86595 82988 82979 82986 108217 93801 104700 104697 97407 97405 104616 101010 108220 104615 86595 90214 93802 90204 86593 82992 82991 93815 86601 90213 21677 3604 79386 75776 72171 75779 64985 57763 61365 64969 46959 43350 46953 46943 50557 50547 46945 39736 43361 18059 21692 18067 14458 10863 7251 7261 3657 3661 44 36201 39804 46945 43342 32520 39734 36125 39730 36125 28913 32516 36117 32515 39722 36117 28909 32518 14466 14464 14467 18069 14465 14466 21713 18104 18107 21714 25351 21746 21734 25338 18133 18131 21772 18169 39805 36201 39805 7299 3692 18130 21746 21735 18132 18133 14531 82982 79377 72178 68569 57770 54163 64967 61364 54166 50560 28984 25376 21762 18158 25365 21761 10917 7313 10900 7298 14501 10899 25278 21671 14477 10871 28876 25273 25262 7261 10867 34 3648 46953 50567 104690 104692 10890 10935 3700 25434 43418 10916 43421 43422 39819 43410
43342 36137 28925 46970 93872 101096 104712 21762 21731 10872 14477 75784 18098 32534 90258 93886 7240 7222 7211 54218 57821 43371 43347 82992 86707 36148 32535 14455 14459 21712 25353 28980 39800 7245 7256 97493 18095 43356 46952 50592 18091 57823 61436 7209 0 14482 3624 18098 3628 5 25304 23 10869 18 23 21700 10877 2 25304 3652 18088 21 3626 14483 7261 3605 61472 43411 46948 54178 43377 43378 43379 54167 50563 50612 46986 36138 39757 86655 83019 86621 90211 97496 97478 86607 79390 82997 75787 79389 83003 79390 79390 79390 75783 75774 75781 101012 86596 97495 97492 90202 90200 97411 93805 101015 97410 79390 83009 86597 82999 79388 75787 75786 86610 79396 83008 14472 3605 72181 68571 64966 68574 57780 50558 54160 57764 39754 36145 39748 39738 43352 43342 39740 32531 36156 10854 14487 10862 7253 14461 10849 14470 10866 10870 7253 43410 47013 39740 36137 25315 32529 28920 32525 28920 21708 25311 28912 25310 32517 28912 21704 25313 18064 18062 18065 21667 18063 18064 28922 25313 25316 28923 32560 28955 28943 32547 25342 25340 28981 25378 47014 43410 47014 14508 10901 25339 28955 28944 25341 25342 21740 75777 72172 64973 61364 50565 46958 57762 54159 46961 43355 36193 32585 28971 25367 32574 28970 18126 14522 18109 14507 21710 18108 28876 25269 21662 18065 32474 28871 18057 14470 18076 7243 10857 39748 43362 97485 97487 18099 18144 10909 32643 50627 18125 50630 50631 47028 50619
50520 43315 36103 54148 101050 108274 111890 36240 36209 25350 28955 82962 25276 39712 97436 101064 21676 21700 21689 61396 64999 50549 50525 90170 93885 43326 39713 21633 28895 36190 39831 43458 54278 21723 21734 104671 32573 50534 54130 57770 32569 65001 68614 21687 14482 0 18070 3616 18064 14483 10822 14459 10829 14464 14463 7218 3605 14480 10822 10830 3613 14461 18104 7217 7221 18087 68650 57889 54126 61356 50555 50556 50557 61345 57741 57790 54164 43316 46935 93833 90197 93799 97389 104674 104656 93785 86568 90175 82965 86567 90181 86568 86568 86568 82961 82952 82959 108190 93774 104673 104670 97380 97378 104589 100983 108193 104588 86568 90187 93775 90177 86566 82965 82964 93788 86574 90186 14432 18083 79359 75749 72144 75752 64958 57736 61338 64942 46932 43323 46926 46916 50530 50520 46918 39709 43334 18032 21665 18040 14431 28897 25285 28948 25344 25348 21731 57888 61491 46918 43315 32493 39707 36098 39703 36098 28886 32489 36090 32488 39695 36090 28882 32491 32500 32498 32501 36103 32499 32500 43400 39791 39794 43401 47038 43433 43421 47025 39820 39818 43459 39856 61492 57888 61492 28986 25379 39817 43433 43422 39819 39820 36218 82955 79350 72151 68542 57743 54136 64940 61337 54139 50533 50671 47063 43449 39845 47052 43448 32604 29000 32587 28985 36188 32586 43312 39705 36098 32501 46910 43307 25235 28948 32554 21721 25335 46926 50540 104663 104665 32577 32622 25387 47121 65105 32603 65108 65109 61506 65097
46930 39725 32513 50558 97460 104684 108300 21792 21761 10902 14507 79372 21686 36122 93846 97474 7223 7252 7241 57806 61409 46959 46935 86580 90295 39736 36123 18043 14442 21742 25383 29010 39830 7275 7286 101081 18125 46944 50540 54180 18121 61411 65024 7239 3624 18070 0 21686 3611 3625 28892 3611 14457 3606 3611 25288 14465 3622 28892 7240 21676 3609 3612 18071 10849 7229 65060 43441 50536 57766 46965 46966 46967 57755 54151 54200 50574 39726 43345 90243 86607 90209 93799 101084 101066 90195 82978 86585 79375 82977 86591 82978 82978 82978 79371 79362 79369 104600 90184 101083 101080 93790 93788 100999 97393 104603 100998 82978 86597 90185 86587 82976 79375 79374 90198 82984 86596 18060 7225 75769 72159 68554 72162 61368 54146 57748 61352 43342 39733 43336 43326 46940 46930 43328 36119 39744 14442 18075 14450 10841 14444 10832 14500 10896 10900 7283 43440 47043 43328 39725 28903 36117 32508 36113 32508 25296 28899 32500 28898 36105 32500 25292 28901 18047 18045 18048 21650 18046 18047 28952 25343 25346 28953 32590 28985 28973 32577 25372 25370 29011 25408 47044 43440 47044 14538 10931 25369 28985 28974 25371 25372 21770 79365 75760 68561 64952 54153 50546 61350 57747 50549 46943 36223 32615 29001 25397 32604 29000 18156 14552 18139 14537 21740 18138 28859 25252 21645 18048 32457 28854 21645 14500 18106 7273 10887 43336 46950 101073 101075 18129 18174 10939 32673 50657 18155 50660 50661 47058 50649
54136 46931 39719 57764 104666 111890 115506 39856 39825 28966 32571 86578 28892 43328 101052 104680 25292 25316 25305 65012 68615 54165 54141 93786 97501 46942 43329 25249 32511 39806 43447 47074 57894 25339 25350 108287 36189 54150 57746 61386 36185 68617 72230 25303 18098 3616 21686 0 21680 18099 7206 18075 10829 18080 18079 3602 7221 18096 7206 14446 3610 18077 21720 7215 10837 21703 72266 61505 57742 64972 54171 54172 54173 64961 61357 61406 57780 46932 50551 97449 93813 97415 101005 108290 108272 97401 90184 93791 86581 90183 93797 90184 90184 90184 86577 86568 86575 111806 97390 108289 108286 100996 100994 108205 104599 111809 108204 90184 93803 97391 93793 90182 86581 86580 97404 90190 93802 14432 21699 82975 79365 75760 79368 68574 61352 64954 68558 50548 46939 50542 50532 54146 54136 50534 43325 46950 21648 25281 21656 18047 32513 28901 32564 28960 28964 25347 61504 65107 50534 46931 36109 43323 39714 43319 39714 32502 36105 39706 36104 43311 39706 32498 36107 36116 36114 36117 39719 36115 36116 47016 43407 43410 47017 50654 47049 47037 50641 43436 43434 47075 43472 65108 61504 65108 32602 28995 43433 47049 47038 43435 43436 39834 86571 82966 75767 72158 61359 57752 68556 64953 57755 54149 54287 50679 47065 43461 50668 47064 36220 32616 36203 32601 39804 36202 46928 43321 39714 36117 50526 46923 28851 32564 36170 25337 28951 50542 54156 108279 108281 36193 36238 29003 50737 68721 36219 68724 68725 65122 68713
46924 39719 32507 50552 97454 104678 108294 21781 21750 10891 14496 79366 21680 36116 93840 97468 3612 7241 7252 57800 61403 46953 46929 86574 90289 39730 36117 18037 10831 21731 25372 28999 39819 7264 7275 101075 18114 46938 50534 54174 18110 61405 65018 7254 3628 18064 3611 21680 0 3629 28886 3605 14451 3610 3609 25282 14459 3626 28886 7234 21670 3607 7223 18065 10843 7233 65054 43430 50530 57760 46959 46960 46961 57749 54145 54194 50568 39720 43339 90237 86601 90203 93793 101078 101060 90189 82972 86579 79369 82971 86585 82972 82972 82972 79365 79356 79363 104594 90178 101077 101074 93784 93782 100993 97387 104597 100992 82972 86591 90179 86581 82970 79369 79368 90192 82978 86590 18054 7229 75763 72153 68548 72156 61362 54140 57742 61346 43336 39727 43330 43320 46934 46924 43322 36113 39738 14436 18069 14444 10835 10833 7221 14489 10885 10889 7272 43429 47032 43322 39719 28897 36111 32502 36107 32502 25290 28893 32494 28892 36099 32494 25286 28895 14436 14434 14437 18039 14435 14436 28845 25332 25335 28942 32579 28974 28962 32566 25361 25359 29000 25397 47033 43429 47033 14527 10920 25358 28974 28963 25360 25361 21759 79359 75754 68555 64946 54147 50540 61344 57741 50543 46937 36212 32604 28990 25386 32593 28989 18145 14541 18128 14526 21729 18127 25248 21641 18034 14437 28846 25243 21639 14489 18095 7284 10898 43330 46944 101067 101069 18118 18163 10950 32662 50646 18144 50649 50650 47047 50638
43343 36138 28926 46971 93873 101097 104713 21757 21726 10867 14472 75785 18099 32535 90259 93887 7241 7217 7206 54219 57822 43372 43348 82993 86708 36149 32536 14456 14460 21707 25348 28975 39795 7240 7251 97494 18090 43357 46953 50593 18086 57824 61437 7204 5 14483 3625 18099 3629 0 25305 24 10870 19 24 21701 10878 3 25305 3653 18089 22 3621 14484 7262 3610 61473 43406 46949 54179 43378 43379 43380 54168 50564 50613 46987 36139 39758 86656 83020 86622 90212 97497 97479 86608 79391 82998 75788 79390 83004 79391 79391 79391 75784 75775 75782 101013 86597 97496 97493 90203 90201 97412 93806 101016 97411 79391 83010 86598 83000 79389 75788 75787 86611 79397 83009 14473 3600 72182 68572 64967 68575 57781 50559 54161 57765 39755 36146 39749 39739 43353 43343 39741 32532 36157 10855 14488 10863 7254 14462 10850 14465 10861 10865 7248 43405 47008 39741 36138 25316 32530 28921 32526 28921 21709 25312 28913 25311 32518 28913 21705 25314 18065 18063 18066 21668 18064 18065 28917 25308 25311 28918 32555 28950 28938 32542 25337 25335 28976 25373 47009 43405 47009 14503 10896 25334 28950 28939 25336 25337 21735 75778 72173 64974 61365 50566 46959 57763 54160 46962 43356 36188 32580 28966 25362 32569 28965 18121 14517 18104 14502 21705 18103 28877 25270 21663 18066 32475 28872 18058 14465 18071 7238 10852 39749 43363 97486 97488 18094 18139 10904 32638 50622 18120 50625 50626 47023 50614
61342 54137 46925 64970 111872 119096 122712 47062 47031 36172 39777 93784 36098 50534 108258 111886 32498 32522 32511 72218 75821 61371 61347 100992 104707 54148 50535 32455 39717 47012 50653 54280 65100 32545 32556 115493 43395 61356 64952 68592 43391 75823 79436 32509 25304 10822 28892 7206 28886 25305 0 25281 18035 25286 25285 3604 14427 25302 7208 21652 10816 25283 28926 14421 18043 28909 79472 68711 64948 72178 61377 61378 61379 72167 68563 68612 64986 54138 57757 104655 101019 104621 108211 115496 115478 104607 97390 100997 93787 97389 101003 97390 97390 97390 93783 93774 93781 119012 104596 115495 115492 108202 108200 115411 111805 119015 115410 97390 101009 104597 100999 97388 93787 93786 104610 97396 101008 21638 28905 90181 86571 82966 86574 75780 68558 72160 75764 57754 54145 57748 57738 61352 61342 57740 50531 54156 28854 32487 28862 25253 39719 36107 39770 36166 36170 32553 68710 72313 57740 54137 43315 50529 46920 50525 46920 39708 43311 46912 43310 50517 46912 39704 43313 43322 43320 43323 46925 43321 43322 54222 50613 50616 54223 57860 54255 54243 57847 50642 50640 54281 50678 72314 68710 72314 39808 36201 50639 54255 54244 50641 50642 47040 93777 90172 82973 79364 68565 64958 75762 72159 64961 61355 61493 57885 54271 50667 57874 54270 43426 39822 43409 39807 47010 43408 54134 50527 46920 43323 57732 54129 36057 39770 43376 32543 36157 57748 61362 115485 115487 43399 43444 36209 57943 75927 43425 75930 75931 72328 75919
43319 36114 28902 46947 93849 101073 104689 21781 21750 10891 14496 75761 18075 32511 90235 93863 7217 7241 7230 54195 57798 43348 43324 82969 86684 36125 32512 14432 14436 21731 25372 28999 39819 7264 7275 97470 18114 43333 46929 50569 18110 57800 61413 7228 23 14459 3611 18075 3605 24 25281 0 10846 5 4 21677 10854 21 25281 3629 18065 2 3645 14460 7238 3628 61449 43430 46925 54155 43354 43355 43356 54144 50540 50589 46963 36115 39734 86632 82996 86598 90188 97473 97455 86584 79367 82974 75764 79366 82980 79367 79367 79367 75760 75751 75758 100989 86573 97472 97469 90179 90177 97388 93782 100992 97387 79367 82986 86574 82976 79365 75764 75763 86587 79373 82985 14449 3624 72158 68548 64943 68551 57757 50535 54137 57741 39731 36122 39725 39715 43329 43319 39717 32508 36133 10831 14464 10839 7230 14438 10826 14489 10885 10889 7272 43429 47032 39717 36114 25292 32506 28897 32502 28897 21685 25288 28889 25287 32494 28889 21681 25290 18041 18039 18042 21644 18040 18041 28941 25332 25335 28942 32579 28974 28962 32566 25361 25359 29000 25397 47033 43429 47033 14527 10920 25358 28974 28963 25360 25361 21759 75754 72149 64950 61341 50542 46935 57739 54136 46938 43332 36212 32604 28990 25386 32593 28989 18145 14541 18128 14526 21729 18127 28853 25246 21639 18042 32451 28848 18034 14489 18095 7262 10876 39725 43339 97462 97464 18118 18163 10928 32662 50646 18144 50649 50650 47047 50638
46907 39702 32490 50535 97437 104661 108277 32627 32596 21737 25342 79349 21663 36099 93823 97451 18063 18087 18076 57783 61386 46936 46912 86557 90272 39713 36100 18020 25282 32577 36218 39845 50665 18110 18121 101058 28960 46921 50517 54157 28956 61388 65001 18074 10869 10829 14457 10829 14451 10870 18035 10846 0 10851 10850 14431 7224 10867 18035 7217 7219 10848 14491 3614 3608 14474 65037 54276 50513 57743 46942 46943 46944 57732 54128 54177 50551 39703 43322 90220 86584 90186 93776 101061 101043 90172 82955 86562 79352 82954 86568 82955 82955 82955 79348 79339 79346 104577 90161 101060 101057 93767 93765 100976 97370 104580 100975 82955 86574 90162 86564 82953 79352 79351 90175 82961 86573 3603 14470 75746 72136 68531 72139 61345 54123 57725 61329 43319 39710 43313 43303 46917 46907 43305 36096 39721 14419 18052 14427 10818 25284 21672 25335 21731 21735 18118 54275 57878 43305 39702 28880 36094 32485 36090 32485 25273 28876 32477 28875 36082 32477 25269 28878 28887 28885 28888 32490 28886 28887 39787 36178 36181 39788 43425 39820 39808 43412 36207 36205 39846 36243 57879 54275 57879 25373 21766 36204 39820 39809 36206 36207 32605 79342 75737 68538 64929 54130 50523 61327 57724 50526 46920 47058 43450 39836 36232 43439 39835 28991 25387 28974 25372 32575 28973 39699 36092 32485 28888 43297 39694 21622 25335 28941 18108 21722 43313 46927 101050 101052 28964 29009 21774 43508 61492 28990 61495 61496 57893 61484
43324 36119 28907 46952 93854 101078 104694 21776 21745 10886 14491 75766 18080 32516 90240 93868 7222 7236 7225 54200 57803 43353 43329 82974 86689 36130 32517 14437 14441 21726 25367 28994 39814 7259 7270 97475 18109 43338 46934 50574 18105 57805 61418 7223 18 14464 3606 18080 3610 19 25286 5 10851 0 5 21682 10859 16 25286 3634 18070 3 3640 14465 7243 3623 61454 43425 46930 54160 43359 43360 43361 54149 50545 50594 46968 36120 39739 86637 83001 86603 90193 97478 97460 86589 79372 82979 75769 79371 82985 79372 79372 79372 75765 75756 75763 100994 86578 97477 97474 90184 90182 97393 93787 100997 97392 79372 82991 86579 82981 79370 75769 75768 86592 79378 82990 14454 3619 72163 68553 64948 68556 57762 50540 54142 57746 39736 36127 39730 39720 43334 43324 39722 32513 36138 10836 14469 10844 7235 14443 10831 14484 10880 10884 7267 43424 47027 39722 36119 25297 32511 28902 32507 28902 21690 25293 28894 25292 32499 28894 21686 25295 18046 18044 18047 21649 18045 18046 28936 25327 25330 28937 32574 28969 28957 32561 25356 25354 28995 25392 47028 43424 47028 14522 10915 25353 28969 28958 25355 25356 21754 75759 72154 64955 61346 50547 46940 57744 54141 46943 43337 36207 32599 28985 25381 32588 28984 18140 14536 18123 14521 21724 18122 28858 25251 21644 18047 32456 28853 18039 14484 18090 7257 10871 39730 43344 97467 97469 18113 18158 10923 32657 50641 18139 50644 50645 47042 50633
43323 36118 28906 46951 93853 101077 104693 21781 21750 10891 14496 75765 18079 32515 90239 93867 7221 7241 7230 54199 57802 43352 43328 82973 86688 36129 32516 14436 14440 21731 25372 28999 39819 7264 7275 97474 18114 43337 46933 50573 18110 57804 61417 7228 23 14463 3611 18079 3609 24 25285 4 10850 5 0 21681 10858 21 25285 3633 18069 2 3645 14464 7242 3628 61453 43430 46929 54159 43358 43359 43360 54148 50544 50593 46967 36119 39738 86636 83000 86602 90192 97477 97459 86588 79371 82978 75768 79370 82984 79371 79371 79371 75764 75755 75762 100993 86577 97476 97473 90183 90181 97392 93786 100996 97391 79371 82990 86578 82980 79369 75768 75767 86591 79377 82989 14453 3624 72162 68552 64947 68555 57761 50539 54141 57745 39735 36126 39729 39719 43333 43323 39721 32512 36137 10835 14468 10843 7234 14442 10830 14489 10885 10889 7272 43429 47032 39721 36118 25296 32510 28901 32506 28901 21689 25292 28893 25291 32498 28893 21685 25294 18045 18043 18046 21648 18044 18045 28941 25332 25335 28942 32579 28974 28962 32566 25361 25359 29000 25397 47033 43429 47033 14527 10920 25358 28974 28963 25360 25361 21759 75758 72153 64954 61345 50546 46939 57743 54140 46942 43336 36212 32604 28990 25386 32593 28989 18145 14541 18128 14526 21729 18127 28857 25250 21643 18046 32455 28852 18038 14489 18095 7262 10876 39729 43343 97466 97468 18118 18163 10928 32662 50646 18144 50649 50650 47047 50638
57738 50533 43321 61366 108268 115492 119108 43458 43427 32568 36173 90180 32494 46930 104654 108282 28894 28918 28907 68614 72217 57767 57743 97388 101103 50544 46931 28851 36113 43408 47049 50676 61496 28941 28952 111889 39791 57752 61348 64988 39787 72219 75832 28905 21700 7218 25288 3602 25282 21701 3604 21677 14431 21682 21681 0 10823 21698 3604 18048 7212 21679 25322 10817 14439 25305 75868 65107 61344 68574 57773 57774 57775 68563 64959 65008 61382 50534 54153 101051 97415 101017 104607 111892 111874 101003 93786 97393 90183 93785 97399 93786 93786 93786 90179 90170 90177 115408 100992 111891 111888 104598 104596 111807 108201 115411 111806 93786 97405 100993 97395 93784 90183 90182 101006 93792 97404 18034 25301 86577 82967 79362 82970 72176 64954 68556 72160 54150 50541 54144 54134 57748 57738 54136 46927 50552 25250 28883 25258 21649 36115 32503 36166 32562 32566 28949 65106 68709 54136 50533 39711 46925 43316 46921 43316 36104 39707 43308 39706 46913 43308 36100 39709 39718 39716 39719 43321 39717 39718 50618 47009 47012 50619 54256 50651 50639 54243 47038 47036 50677 47074 68710 65106 68710 36204 32597 47035 50651 50640 47037 47038 43436 90173 86568 79369 75760 64961 61354 72158 68555 61357 57751 57889 54281 50667 47063 54270 50666 39822 36218 39805 36203 43406 39804 50530 46923 43316 39719 54128 50525 32453 36166 39772 28939 32553 54144 57758 111881 111883 39795 39840 32605 54339 72323 39821 72326 72327 68724 72315
46915 39710 32498 50543 97445 104669 108285 32635 32604 21745 25350 79357 21671 36107 93831 97459 18071 18095 18084 57791 61394 46944 46920 86565 90280 39721 36108 18028 25290 32585 36226 39853 50673 18118 18129 101066 28968 46929 50525 54165 28964 61396 65009 18082 10877 3605 14465 7221 14459 10878 14427 10854 7224 10859 10858 10823 0 10875 14427 7225 7217 10856 14499 3612 3616 14482 65045 54284 50521 57751 46950 46951 46952 57740 54136 54185 50559 39711 43330 90228 86592 90194 93784 101069 101051 90180 82963 86570 79360 82962 86576 82963 82963 82963 79356 79347 79354 104585 90169 101068 101065 93775 93773 100984 97378 104588 100983 82963 86582 90170 86572 82961 79360 79359 90183 82969 86581 10827 14478 75754 72144 68539 72147 61353 54131 57733 61337 43327 39718 43321 43311 46925 46915 43313 36104 39729 14427 18060 14435 10826 25292 21680 25343 21739 21743 18126 54283 57886 43313 39710 28888 36102 32493 36098 32493 25281 28884 32485 28883 36090 32485 25277 28886 28895 28893 28896 32498 28894 28895 39795 36186 36189 39796 43433 39828 39816 43420 36215 36213 39854 36251 57887 54283 57887 25381 21774 36212 39828 39817 36214 36215 32613 79350 75745 68546 64937 54138 50531 61335 57732 50534 46928 47066 43458 39844 36240 43447 39843 28999 25395 28982 25380 32583 28981 39707 36100 32493 28896 43305 39702 21630 25343 28949 18116 21730 43321 46935 101058 101060 28972 29017 21782 43516 61500 28998 61503 61504 57901 61492
43340 36135 28923 46968 93870 101094 104710 21760 21729 10870 14475 75782 18096 32532 90256 93884 7238 7220 7209 54216 57819 43369 43345 82990 86705 36146 32533 14453 14457 21710 25351 28978 39798 7243 7254 97491 18093 43354 46950 50590 18089 57821 61434 7207 2 14480 3622 18096 3626 3 25302 21 10867 16 21 21698 10875 0 25302 3650 18086 19 3624 14481 7259 3607 61470 43409 46946 54176 43375 43376 43377 54165 50561 50610 46984 36136 39755 86653 83017 86619 90209 97494 97476 86605 79388 82995 75785 79387 83001 79388 79388 79388 75781 75772 75779 101010 86594 97493 97490 90200 90198 97409 93803 101013 97408 79388 83007 86595 82997 79386 75785 75784 86608 79394 83006 14470 3603 72179 68569 64964 68572 57778 50556 54158 57762 39752 36143 39746 39736 43350 43340 39738 32529 36154 10852 14485 10860 7251 14459 10847 14468 10864 10868 7251 43408 47011 39738 36135 25313 32527 28918 32523 28918 21706 25309 28910 25308 32515 28910 21702 25311 18062 18060 18063 21665 18061 18062 28920 25311 25314 28921 32558 28953 28941 32545 25340 25338 28979 25376 47012 43408 47012 14506 10899 25337 28953 28942 25339 25340 21738 75775 72170 64971 61362 50563 46956 57760 54157 46959 43353 36191 32583 28969 25365 32572 28968 18124 14520 18107 14505 21708 18106 28874 25267 21660 18063 32472 28869 18055 14468 18074 7241 10855 39746 43360 97483 97485 18097 18142 10907 32641 50625 18123 50628 50629 47026 50617
61342 54137 46925 64970 111872 119096 122712 47062 47031 36172 39777 93784 36098 50534 108258 111886 32498 32522 32511 72218 75821 61371 61347 100992 104707 54148 50535 32455 39717 47012 50653 54280 65100 32545 32556 115493 43395 61356 64952 68592 43391 75823 79436 32509 25304 10822 28892 7206 28886 25305 7208 25281 18035 25286 25285 3604 14427 25302 0 21652 10816 25283 28926 14421 18043 28909 79472 68711 64948 72178 61377 61378 61379 72167 68563 68612 64986 54138 57757 104655 101019 104621 108211 115496 115478 104607 97390 100997 93787 97389 101003 97390 97390 97390 93783 93774 93781 119012 104596 115495 115492 108202 108200 115411 111805 119015 115410 97390 101009 104597 100999 97388 93787 93786 104610 97396 101008 21638 28905 90181 86571 82966 86574 75780 68558 72160 75764 57754 54145 57748 57738 61352 61342 57740 50531 54156 28854 32487 28862 25253 39719 36107 39770 36166 36170 32553 68710 72313 57740 54137 43315 50529 46920 50525 46920 39708 43311 46912 43310 50517 46912 39704 43313 43322 43320 43323 46925 43321 43322 54222 50613 50616 54223 57860 54255 54243 57847 50642 50640 54281 50678 72314 68710 72314 39808 36201 50639 54255 54244 50641 50642 47040 93777 90172 82973 79364 68565 64958 75762 72159 64961 61355 61493 57885 54271 50667 57874 54270 43426 39822 43409 39807 47010 43408 54134 50527 46920 43323 57732 54129 36057 39770 43376 32543 36157 57748 61362 115485 115487 43399 43444 36209 57943 75927 43425 75930 75931 72328 75919
39690 32485 25273 43318 90220 97444 101060 25410 25379 14520 18125 72132 14446 28882 86606 90234 10846 10870 10859 50566 54169 39719 39695 79340 83055 32496 28883 10803 18065 25360 29001 32628 43448 10893 10904 93841 21743 39704 43300 46940 21739 54171 57784 10857 3652 10830 7240 14446 7234 3653 21652 3629 7217 3634 3633 18048 7225 3650 21652 0 14436 3631 7274 10831 3609 7257 57820 47059 43296 50526 39725 39726 39727 50515 46911 46960 43334 32486 36105 83003 79367 82969 86559 93844 93826 82955 75738 79345 72135 75737 79351 75738 75738 75738 72131 72122 72129 97360 82944 93843 93840 86550 86548 93759 90153 97363 93758 75738 79357 82945 79347 75736 72135 72134 82958 75744 79356 10820 7253 68529 64919 61314 64922 54128 46906 50508 54112 36102 32493 36096 36086 39700 39690 36088 28879 32504 7202 10835 7210 3601 18067 14455 18118 14514 14518 10901 47058 50661 36088 32485 21663 28877 25268 28873 25268 18056 21659 25260 21658 28865 25260 18052 21661 21670 21668 21671 25273 21669 21670 32570 28961 28964 32571 36208 32603 32591 36195 28990 28988 32629 29026 50662 47058 50662 18156 14549 28987 32603 32592 28989 28990 25388 72125 68520 61321 57712 46913 43306 54110 50507 43309 39703 39841 36233 32619 29015 36222 32618 21774 18170 21757 18155 25358 21756 32482 28875 25268 21671 36080 32477 14405 18118 21724 10891 14505 36096 39710 93833 93835 21747 21792 14557 36291 54275 21773 54278 54279 50676 54267
54126 46921 39709 57754 104656 111880 115496 39846 39815 28956 32561 86568 28882 43318 101042 104670 25282 25306 25295 65002 68605 54155 54131 93776 97491 46932 43319 25239 32501 39796 43437 47064 57884 25329 25340 108277 36179 54140 57736 61376 36175 68607 72220 25293 18088 3613 21676 3610 21670 18089 10816 18065 7219 18070 18069 7212 7217 18086 10816 14436 0 18067 21710 3605 10827 21693 72256 61495 57732 64962 54161 54162 54163 64951 61347 61396 57770 46922 50541 97439 93803 97405 100995 108280 108262 97391 90174 93781 86571 90173 93787 90174 90174 90174 86567 86558 86565 111796 97380 108279 108276 100986 100984 108195 104589 111799 108194 90174 93793 97381 93783 90172 86571 86570 97394 90180 93792 10822 21689 82965 79355 75750 79358 68564 61342 64944 68548 50538 46929 50532 50522 54136 54126 50524 43315 46940 21638 25271 21646 18037 32503 28891 32554 28950 28954 25337 61494 65097 50524 46921 36099 43313 39704 43309 39704 32492 36095 39696 36094 43301 39696 32488 36097 36106 36104 36107 39709 36105 36106 47006 43397 43400 47007 50644 47039 47027 50631 43426 43424 47065 43462 65098 61494 65098 32592 28985 43423 47039 47028 43425 43426 39824 86561 82956 75757 72148 61349 57742 68546 64943 57745 54139 54277 50669 47055 43451 50658 47054 36210 32606 36193 32591 39794 36192 46918 43311 39704 36107 50516 46913 28841 32554 36160 25327 28941 50532 54146 108269 108271 36183 36228 28993 50727 68711 36209 68714 68715 65112 68703
43321 36116 28904 46949 93851 101075 104691 21779 21748 10889 14494 75763 18077 32513 90237 93865 7219 7239 7228 54197 57800 43350 43326 82971 86686 36127 32514 14434 14438 21729 25370 28997 39817 7262 7273 97472 18112 43335 46931 50571 18108 57802 61415 7226 21 14461 3609 18077 3607 22 25283 2 10848 3 2 21679 10856 19 25283 3631 18067 0 3643 14462 7240 3626 61451 43428 46927 54157 43356 43357 43358 54146 50542 50591 46965 36117 39736 86634 82998 86600 90190 97475 97457 86586 79369 82976 75766 79368 82982 79369 79369 79369 75762 75753 75760 100991 86575 97474 97471 90181 90179 97390 93784 100994 97389 79369 82988 86576 82978 79367 75766 75765 86589 79375 82987 14451 3622 72160 68550 64945 68553 57759 50537 54139 57743 39733 36124 39727 39717 43331 43321 39719 32510 36135 10833 14466 10841 7232 14440 10828 14487 10883 10887 7270 43427 47030 39719 36116 25294 32508 28899 32504 28899 21687 25290 28891 25289 32496 28891 21683 25292 18043 18041 18044 21646 18042 18043 28939 25330 25333 28940 32577 28972 28960 32564 25359 25357 28998 25395 47031 43427 47031 14525 10918 25356 28972 28961 25358 25359 21757 75756 72151 64952 61343 50544 46937 57741 54138 46940 43334 36210 32602 28988 25384 32591 28987 18143 14539 18126 14524 21727 18125 28855 25248 21641 18044 32453 28850 18036 14487 18093 7260 10874 39727 43341 97464 97466 18116 18161 10926 32660 50644 18142 50647 50648 47045 50636
46964 39759 32547 50592 97494 104718 108334 18180 18149 7290 10895 79406 21720 36156 93880 97508 7269 3640 3629 57840 61443 46993 46969 86614 90329 39770 36157 18077 14488 18130 21771 25398 36218 3663 3674 101115 14513 46978 50574 54214 14509 61445 65058 3627 3626 18104 3612 21720 7223 3621 28926 3645 14491 3640 3645 25322 14499 3624 28926 7274 21710 3643 0 18105 10883 7231 65094 39829 50570 57800 46999 47000 47001 57789 54185 54234 50608 39760 43379 90277 86641 90243 93833 101118 101100 90229 83012 86619 79409 83011 86625 83012 83012 83012 79405 79396 79403 104634 90218 101117 101114 93824 93822 101033 97427 104637 101032 83012 86631 90219 86621 83010 79409 79408 90232 83018 86630 18094 7221 75803 72193 68588 72196 61402 54180 57782 61386 43376 39767 43370 43360 46974 46964 43362 36153 39778 14476 18109 14484 10875 14490 10878 10888 7284 7288 3671 39828 43431 43362 39759 28937 36151 32542 36147 32542 25330 28933 32534 28932 36139 32534 25326 28935 18093 18091 18094 21696 18092 18093 25340 21731 21734 25341 28978 25373 25361 28965 21760 21758 25399 21796 43432 39828 43432 10926 7319 21757 25373 25362 21759 21760 18158 79399 75794 68595 64986 54187 50580 61384 57781 50583 46977 32611 29003 25389 21785 28992 25388 14544 10940 14527 10925 18128 14526 28905 25298 18104 14498 32503 28900 21679 10888 14494 3661 7275 43370 46984 101107 101109 14517 14562 7327 29061 47045 14543 47048 47049 43446 47037
50521 43316 36104 54149 101051 108275 111891 36241 36210 25351 28956 82963 25277 39713 97437 101065 21677 21701 21690 61397 65000 50550 50526 90171 93886 43327 39714 21634 28896 36191 39832 43459 54279 21724 21735 104672 32574 50535 54131 57771 32570 65002 68615 21688 14483 7217 18071 7215 18065 14484 14421 14460 3614 14465 14464 10817 3612 14481 14421 10831 3605 14462 18105 0 7222 18088 68651 57890 54127 61357 50556 50557 50558 61346 57742 57791 54165 43317 46936 93834 90198 93800 97390 104675 104657 93786 86569 90176 82966 86568 90182 86569 86569 86569 82962 82953 82960 108191 93775 104674 104671 97381 97379 104590 100984 108194 104589 86569 90188 93776 90178 86567 82966 82965 93789 86575 90187 7217 18084 79360 75750 72145 75753 64959 57737 61339 64943 46933 43324 46927 46917 50531 50521 46919 39710 43335 18033 21666 18041 14432 28898 25286 28949 25345 25349 21732 57889 61492 46919 43316 32494 39708 36099 39704 36099 28887 32490 36091 32489 39696 36091 28883 32492 32501 32499 32502 36104 32500 32501 43401 39792 39795 43402 47039 43434 43422 47026 39821 39819 43460 39857 61493 57889 61493 28987 25380 39818 43434 43423 39820 39821 36219 82956 79351 72152 68543 57744 54137 64941 61338 54140 50534 50672 47064 43450 39846 47053 43449 32605 29001 32588 28986 36189 32587 43313 39706 36099 32502 46911 43308 25236 28949 32555 21722 25336 46927 50541 104664 104666 32578 32623 25388 47122 65106 32604 65109 65110 61507 65098
43299 36094 28882 46927 93829 101053 104669 29019 28988 18129 21734 75741 18055 32491 90215 93843 14455 14479 14468 54175 57778 43328 43304 82949 86664 36105 32492 14412 21674 28969 32610 36237 47057 14502 14513 97450 25352 43313 46909 50549 25348 57780 61393 14466 7261 7221 10849 10837 10843 7262 18043 7238 3608 7243 7242 14439 3616 7259 18043 3609 10827 7240 10883 7222 0 10866 61429 50668 46905 54135 43334 43335 43336 54124 50520 50569 46943 36095 39714 86612 82976 86578 90168 97453 97435 86564 79347 82954 75744 79346 82960 79347 79347 79347 75740 75731 75738 100969 86553 97452 97449 90159 90157 97368 93762 100972 97367 79347 82966 86554 82956 79345 75744 75743 86567 79353 82965 7211 10862 72138 68528 64923 68531 57737 50515 54117 57721 39711 36102 39705 39695 43309 43299 39697 32488 36113 10811 14444 10819 7210 21676 18064 21727 18123 18127 14510 50667 54270 39697 36094 25272 32486 28877 32482 28877 21665 25268 28869 25267 32474 28869 21661 25270 25279 25277 25280 28882 25278 25279 36179 32570 32573 36180 39817 36212 36200 39804 32599 32597 36238 32635 54271 50667 54271 21765 18158 32596 36212 36201 32598 32599 28997 75734 72129 64930 61321 50522 46915 57719 54116 46918 43312 43450 39842 36228 32624 39831 36227 25383 21779 25366 21764 28967 25365 36091 32484 28877 25280 39689 36086 18014 21727 25333 14500 18114 39705 43319 97442 97444 25356 25401 18166 39900 57884 25382 57887 57888 54285 57876
46947 39742 32530 50575 97477 104701 108317 21784 21753 10894 14499 79389 21703 36139 93863 97491 10845 7244 7233 57823 61426 46976 46952 86597 90312 39753 36140 18060 18064 21734 25375 29002 39822 7267 7278 101098 18117 46961 50557 54197 18113 61428 65041 7231 3605 18087 7229 21703 7233 3610 28909 3628 14474 3623 3628 25305 14482 3607 28909 7257 21693 3626 7231 18088 10866 0 65077 43433 50553 57783 46982 46983 46984 57772 54168 54217 50591 39743 43362 90260 86624 90226 93816 101101 101083 90212 82995 86602 79392 82994 86608 82995 82995 82995 79388 79379 79386 104617 90201 101100 101097 93807 93805 101016 97410 104620 101015 82995 86614 90202 86604 82993 79392 79391 90215 83001 86613 18077 3627 75786 72176 68571 72179 61385 54163 57765 61369 43359 39750 43353 43343 46957 46947 43345 36136 39761 14459 18092 14467 10858 18066 14454 14492 10888 10892 7275 43432 47035 43345 39742 28920 36134 32525 36130 32525 25313 28916 32517 28915 36122 32517 25309 28918 21669 21667 21670 25272 21668 21669 28944 25335 25338 28945 32582 28977 28965 32569 25364 25362 29003 25400 47036 43432 47036 14530 10923 25361 28977 28966 25363 25364 21762 79382 75777 68578 64969 54170 50563 61367 57764 50566 46960 36215 32607 28993 25389 32596 28992 18148 14544 18131 14529 21732 18130 32481 28874 21708 18102 36079 32476 21662 14492 18098 7265 10879 43353 46967 101090 101092 18121 18166 10931 32665 50649 18147 50652 50653 47050 50641
46964 39759 32547 50592 83048 90272 93888 83230 83199 72340 75945 64960 43374 54197 79434 83062 68666 68690 68679 7254 3651 18101 21726 72168 75883 25324 28937 50587 75885 83180 86821 90448 101268 68713 68724 86669 79563 39758 25331 28971 79559 7253 10866 68677 61472 68650 65060 72266 65054 61473 79472 61449 65037 61454 61453 75868 65045 61470 79472 57820 72256 61451 65094 68651 61429 65077 0 104879 50570 32557 18107 18108 18109 32546 28942 10860 14486 25352 21715 75831 72195 75797 79387 86672 86654 75783 68566 72173 64963 68565 72179 68566 68566 68566 64959 64950 64957 90188 75772 86671 86668 79378 79376 86587 82981 90191 86586 68566 72185 75773 72175 68564 64963 64962 75786 68572 72184 68640 65073 61357 57747 54142 57750 46956 39734 43336 46940 36156 32547 36150 43360 39754 43374 43362 36153 39778 50618 46985 57828 54219 75887 72275 75938 72334 72338 68721 104878 108481 25333 28941 36157 28961 32571 32553 50583 39764 50573 46968 43366 50573 46968 46980 50589 79490 79488 79491 83093 79489 79490 90390 86781 86784 90391 94028 90423 90411 94015 86810 86808 90449 86846 108482 104878 108482 75976 72369 86807 90423 90412 86809 86810 83208 64953 61348 54149 50540 39741 36134 46938 43335 36137 32531 97661 94053 90439 86835 94042 90438 79594 75990 79577 75975 83178 79576 90302 86695 83088 79491 93900 90297 54189 75938 79544 68711 72325 28924 32538 86661 86663 79567 79612 72377 94111 112095 79593 112098 112099 108496 112087
86749 79544 72332 90377 137279 144503 148119 21649 43398 32539 28934 119191 61505 75941 133665 137293 39818 36189 36200 97625 101228 86778 86754 126399 130114 79555 75942 57862 47037 50611 32582 14431 3611 36166 36155 140900 25316 86763 90359 93999 25320 101230 104843 36202 43411 57889 43441 61505 43430 43406 68711 43430 54276 43425 43430 65107 54284 43409 68711 47059 61495 43428 39829 57890 50668 43433 104879 0 90355 97585 86784 86785 86786 97574 93970 94019 90393 79545 83164 130062 126426 130028 133618 140903 140885 130014 122797 126404 119194 122796 126410 122797 122797 122797 119190 119181 119188 144419 130003 140902 140899 133609 133607 140818 137212 144422 140817 122797 126416 130004 126406 122795 119194 119193 130017 122803 126415 57879 39806 115588 111978 108373 111981 101187 93965 97567 101171 83161 79552 83155 83145 86759 86749 83147 75938 79563 54261 57894 54269 50660 47039 43427 43391 39787 39791 36174 7221 10824 83147 79544 68722 75936 72327 75932 72327 65115 68718 72319 68717 75924 72319 65111 68720 50642 50640 50643 54209 50641 50642 57821 54212 47009 50616 36063 32458 39784 43388 43389 43387 21636 18033 10825 7221 10825 43407 39800 43388 36184 39791 43386 32571 28969 119184 115579 108380 104771 93972 90365 101169 97566 90368 86762 7218 10826 28858 25254 32461 28857 39793 36189 47008 43406 50609 47007 61418 57811 50607 47001 65016 61413 61464 43391 46997 36232 39846 83155 86769 140892 140894 25312 32601 39898 18094 14438 25346 14441 14442 10839 14430
3606 10811 18023 7234 82970 90194 93810 68706 68675 57816 61421 64882 28850 39673 79356 82984 54142 54166 54155 43316 46919 32469 32445 72090 75805 25246 21633 36063 61361 68656 72297 75924 86744 54189 54200 86591 65039 21646 36050 39690 65035 46921 50534 54153 46948 54126 50536 57742 50530 46949 64948 46925 50513 46930 46929 61344 50521 46946 64948 43296 57732 46927 50570 54127 46905 50553 50570 90355 0 43276 32475 32476 32477 43265 39661 39710 36084 25236 28855 75753 72117 75719 79309 86594 86576 75705 68488 72095 64885 68487 72101 68488 68488 68488 64881 64872 64879 90110 75694 86593 86590 79300 79298 86509 82903 90113 86508 68488 72107 75695 72097 68486 64885 64884 75708 68494 72106 54116 50549 61279 57669 54064 57672 46878 39656 43258 46862 25250 21641 18038 7210 14434 10814 14414 14417 18042 36094 32461 43304 39695 61363 57751 61414 57810 57814 54197 90354 93957 28838 32446 21633 21627 25237 28842 36059 25240 36049 32444 28842 36049 32444 32456 36065 64966 64964 64967 68569 64965 64966 75866 72257 72260 75867 79504 75899 75887 79491 72286 72284 75925 72322 93958 90354 93958 61452 57845 72283 75899 75888 72285 72286 68684 64875 61270 54071 50462 39663 36056 46860 43257 36059 32453 83137 79529 75915 72311 79518 75914 65070 61466 65053 61451 68654 65052 75778 72171 68564 64967 79376 75773 39665 61414 65020 54187 57801 28846 32460 86583 86585 65043 65088 57853 79587 97571 65069 97574 97575 93972 97563
39670 32465 25253 43298 79403 86627 90243 75936 75905 65046 68651 61315 36080 46903 75789 79417 61372 61396 61385 25303 28906 14456 10831 68523 72238 21679 25292 43293 68591 75886 79527 83154 93974 61419 61430 83024 72269 36113 7226 10866 72265 28908 32521 61383 54178 61356 57766 64972 57760 54179 72178 54155 57743 54160 54159 68574 57751 54176 72178 50526 64962 54157 57800 61357 54135 57783 32557 97585 43276 0 14462 14463 14464 7219 3615 21697 18071 18040 18070 72186 68550 72152 75742 83027 83009 72138 64921 68528 61318 64920 68534 64921 64921 64921 61314 61305 61312 86543 72127 83026 83023 75733 75731 82942 79336 86546 82941 64921 68540 72128 68530 64919 61318 61317 72141 64927 68539 61346 57779 57712 54102 50497 54105 43311 36089 39691 43295 32511 28902 32505 36066 36109 39670 36068 28859 32484 43324 39691 50534 46925 68593 64981 68644 65040 65044 61427 97584 101187 14438 18046 28863 21649 25259 21658 43289 32470 43279 39674 36072 43279 39674 39686 43295 72196 72194 72197 75799 72195 72196 83096 79487 79490 83097 86734 83129 83117 86721 79516 79514 83155 79552 101188 97584 101188 68682 65075 79513 83129 83118 79515 79516 75914 61308 57703 50504 46895 36096 32489 43293 39690 32492 28886 90367 86759 83145 79541 86748 83144 72300 68696 72283 68681 75884 72282 83008 79401 75794 72197 86606 83003 46895 68644 72250 61417 65031 25279 28893 83016 83018 72273 72318 65083 86817 104801 72299 104804 104805 101202 104793
28869 21664 14452 32497 64953 72177 75793 65135 65104 54245 57850 46865 25279 36102 61339 64967 50571 50595 50584 10853 14456 6 3631 54073 57788 7229 10842 32492 57790 65085 68726 72353 83173 50618 50629 68574 61468 21663 7236 10876 61464 14458 18071 50582 43377 50555 46965 54171 46959 43378 61377 43354 46942 43359 43358 57773 46950 43375 61377 39725 54161 43356 46999 50556 43334 46982 18107 86784 32475 14462 0 1 2 14451 10847 7247 3621 7257 3620 57736 54100 57702 61292 68577 68559 57688 50471 54078 46868 50470 54084 50471 50471 50471 46864 46855 46862 72093 57677 68576 68573 61283 61281 68492 64886 72096 68491 50471 54090 57678 54080 50469 46868 46867 57691 50477 54089 50545 46978 43262 39652 36047 39655 28861 21639 25241 28845 18061 14452 18055 25265 21659 25279 25267 18058 21683 32523 28890 39733 36124 57792 54180 57843 54239 54243 50626 86783 90386 7238 10846 18062 10866 14476 14458 32488 21669 32478 28873 25271 32478 28873 28885 32494 61395 61393 61396 64998 61394 61395 72295 68686 68689 72296 75933 72328 72316 75920 68715 68713 72354 68751 90387 86783 90387 57881 54274 68712 72328 72317 68714 68715 65113 46858 43253 36054 32445 21646 18039 28843 25240 18042 14436 79566 75958 72344 68740 75947 72343 61499 57895 61482 57880 65083 61481 72207 68600 64993 61396 75805 72202 36094 57843 61449 50616 54230 10829 14443 68566 68568 61472 61517 54282 76016 94000 61498 94003 94004 90401 93992
28870 21665 14453 32498 64954 72178 75794 65136 65105 54246 57851 46866 25280 36103 61340 64968 50572 50596 50585 10854 14457 7 3632 54074 57789 7230 10843 32493 57791 65086 68727 72354 83174 50619 50630 68575 61469 21664 7237 10877 61465 14459 18072 50583 43378 50556 46966 54172 46960 43379 61378 43355 46943 43360 43359 57774 46951 43376 61378 39726 54162 43357 47000 50557 43335 46983 18108 86785 32476 14463 1 0 3 14452 10848 7248 3622 7258 3621 57737 54101 57703 61293 68578 68560 57689 50472 54079 46869 50471 54085 50472 50472 50472 46865 46856 46863 72094 57678 68577 68574 61284 61282 68493 64887 72097 68492 50472 54091 57679 54081 50470 46869 46868 57692 50478 54090 50546 46979 43263 39653 36048 39656 28862 21640 25242 28846 18062 14453 18056 25266 21660 25280 25268 18059 21684 32524 28891 39734 36125 57793 54181 57844 54240 54244 50627 86784 90387 7239 10847 18063 10867 14477 14459 32489 21670 32479 28874 25272 32479 28874 28886 32495 61396 61394 61397 64999 61395 61396 72296 68687 68690 72297 75934 72329 72317 75921 68716 68714 72355 68752 90388 86784 90388 57882 54275 68713 72329 72318 68715 68716 65114 46859 43254 36055 32446 21647 18040 28844 25241 18043 14437 79567 75959 72345 68741 75948 72344 61500 57896 61483 57881 65084 61482 72208 68601 64994 61397 75806 72203 36095 57844 61450 50617 54231 10830 14444 68567 68569 61473 61518 54283 76017 94001 61499 94004 94005 90402 93993
28871 21666 14454 32499 64955 72179 75795 65137 65106 54247 57852 46867 25281 36104 61341 64969 50573 50597 50586 10855 14458 8 3633 54075 57790 7231 10844 32494 57792 65087 68728 72355 83175 50620 50631 68576 61470 21665 7238 10878 61466 14460 18073 50584 43379 50557 46967 54173 46961 43380 61379 43356 46944 43361 43360 57775 46952 43377 61379 39727 54163 43358 47001 50558 43336 46984 18109 86786 32477 14464 2 3 0 14453 10849 7249 3623 7259 3622 57738 54102 57704 61294 68579 68561 57690 50473 54080 46870 50472 54086 50473 50473 50473 46866 46857 46864 72095 57679 68578 68575 61285 61283 68494 64888 72098 68493 50473 54092 57680 54082 50471 46870 46869 57693 50479 54091 50547 46980 43264 39654 36049 39657 28863 21641 25243 28847 18063 14454 18057 25267 21661 25281 25269 18060 21685 32525 28892 39735 36126 57794 54182 57845 54241 54245 50628 86785 90388 7240 10848 18064 10868 14478 14460 32490 21671 32480 28875 25273 32480 28875 28887 32496 61397 61395 61398 65000 61396 61397 72297 68688 68691 72298 75935 72330 72318 75922 68717 68715 72356 68753 90389 86785 90389 57883 54276 68714 72330 72319 68716 68717 65115 46860 43255 36056 32447 21648 18041 28845 25242 18044 14438 79568 75960 72346 68742 75949 72345 61501 57897 61484 57882 65085 61483 72209 68602 64995 61398 75807 72204 36096 57845 61451 50618 54232 10831 14445 68568 68570 61474 61519 54284 76018 94002 61500 94005 94006 90403 93994
39659 32454 25242 43287 79392 86616 90232 75925 75894 65035 68640 61304 36069 46892 75778 79406 61361 61385 61374 25292 28895 14445 10820 68512 72227 21668 25281 43282 68580 75875 79516 83143 93963 61408 61419 83013 72258 36102 7215 10855 72254 28897 32510 61372 54167 61345 57755 64961 57749 54168 72167 54144 57732 54149 54148 68563 57740 54165 72167 50515 64951 54146 57789 61346 54124 57772 32546 97574 43265 7219 14451 14452 14453 0 3604 21686 18060 18029 18059 72175 68539 72141 75731 83016 82998 72127 64910 68517 61307 64909 68523 64910 64910 64910 61303 61294 61301 86532 72116 83015 83012 75722 75720 82931 79325 86535 82930 64910 68529 72117 68519 64908 61307 61306 72130 64916 68528 61335 57768 57701 54091 50486 54094 43300 36078 39680 43284 32500 28891 32494 36055 36098 39659 36057 28848 32473 43313 39680 50523 46914 68582 64970 68633 65029 65033 61416 97573 101176 14427 18035 28852 21638 25248 21647 43278 32459 43268 39663 36061 43268 39663 39675 43284 72185 72183 72186 75788 72184 72185 83085 79476 79479 83086 86723 83118 83106 86710 79505 79503 83144 79541 101177 97573 101177 68671 65064 79502 83118 83107 79504 79505 75903 61297 57692 50493 46884 36085 32478 43282 39679 32481 28875 90356 86748 83134 79530 86737 83133 72289 68685 72272 68670 75873 72271 82997 79390 75783 72186 86595 82992 46884 68633 72239 61406 65020 25268 28882 83005 83007 72262 72307 65072 86806 104790 72288 104793 104794 101191 104782
36055 28850 21638 39683 75788 83012 86628 72321 72290 61431 65036 57700 32465 43288 72174 75802 57757 57781 57770 21688 25291 10841 7216 64908 68623 18064 21677 39678 64976 72271 75912 79539 90359 57804 57815 79409 68654 32498 3611 7251 68650 25293 28906 57768 50563 57741 54151 61357 54145 50564 68563 50540 54128 50545 50544 64959 54136 50561 68563 46911 61347 50542 54185 57742 50520 54168 28942 93970 39661 3615 10847 10848 10849 3604 0 18082 14456 14425 14455 68571 64935 68537 72127 79412 79394 68523 61306 64913 57703 61305 64919 61306 61306 61306 57699 57690 57697 82928 68512 79411 79408 72118 72116 79327 75721 82931 79326 61306 64925 68513 64915 61304 57703 57702 68526 61312 64924 57731 54164 54097 50487 46882 50490 39696 32474 36076 39680 28896 25287 28890 32451 32494 36055 32453 25244 28869 39709 36076 46919 43310 64978 61366 65029 61425 61429 57812 93969 97572 10823 14431 25248 18034 21644 18043 39674 28855 39664 36059 32457 39664 36059 36071 39680 68581 68579 68582 72184 68580 68581 79481 75872 75875 79482 83119 79514 79502 83106 75901 75899 79540 75937 97573 93969 97573 65067 61460 75898 79514 79503 75900 75901 72299 57693 54088 46889 43280 32481 28874 39678 36075 28877 25271 86752 83144 79530 75926 83133 79529 68685 65081 68668 65066 72269 68667 79393 75786 72179 68582 82991 79388 43280 65029 68635 57802 61416 21664 25278 79401 79403 68658 68703 61468 83202 101186 68684 101189 101190 97587 101178
36104 28899 21687 39732 72188 79412 83028 72370 72339 61480 65085 54100 32514 43337 68574 72202 57806 57830 57819 3606 7209 7241 10866 61308 65023 14464 18077 39727 65025 72320 75961 79588 90408 57853 57864 75809 68703 28898 14471 18111 68699 7211 10824 57817 50612 57790 54200 61406 54194 50613 68612 50589 54177 50594 50593 65008 54185 50610 68612 46960 61396 50591 54234 57791 50569 54217 10860 94019 39710 21697 7247 7248 7249 21686 18082 0 3626 14492 10855 64971 61335 64937 68527 75812 75794 64923 57706 61313 54103 57705 61319 57706 57706 57706 54099 54090 54097 79328 64912 75811 75808 68518 68516 75727 72121 79331 75726 57706 61325 64913 61315 57704 54103 54102 64926 57712 61324 57780 54213 50497 46887 43282 46890 36096 28874 32476 36080 25296 21687 25290 32500 28894 32514 32502 25293 28918 39758 36125 46968 43359 65027 61415 65078 61474 61478 57861 94018 97621 14473 18081 25297 18101 21711 21693 39723 28904 39713 36108 32506 39713 36108 36120 39729 68630 68628 68631 72233 68629 68630 79530 75921 75924 79531 83168 79563 79551 83155 75950 75948 79589 75986 97622 94018 97622 65116 61509 75947 79563 79552 75949 75950 72348 54093 50488 43289 39680 28881 25274 36078 32475 25277 21671 86801 83193 79579 75975 83182 79578 68734 65130 68717 65115 72318 68716 79442 75835 72228 68631 83040 79437 43329 65078 68684 57851 61465 18064 21678 75801 75803 68707 68752 61517 83251 101235 68733 101238 101239 97636 101227
32478 25273 18061 36106 68562 75786 79402 68744 68713 57854 61459 50474 28888 39711 64948 68576 54180 54204 54193 7232 10835 3615 7240 57682 61397 10838 14451 36101 61399 68694 72335 75962 86782 54227 54238 72183 65077 25272 10845 14485 65073 10837 14450 54191 46986 54164 50574 57780 50568 46987 64986 46963 50551 46968 46967 61382 50559 46984 64986 43334 57770 46965 50608 54165 46943 50591 14486 90393 36084 18071 3621 3622 3623 18060 14456 3626 0 10866 7229 61345 57709 61311 64901 72186 72168 61297 54080 57687 50477 54079 57693 54080 54080 54080 50473 50464 50471 75702 61286 72185 72182 64892 64890 72101 68495 75705 72100 54080 57699 61287 57689 54078 50477 50476 61300 54086 57698 54154 50587 46871 43261 39656 43264 32470 25248 28850 32454 21670 18061 21664 28874 25268 28888 28876 21667 25292 36132 32499 43342 39733 61401 57789 61452 57848 57852 54235 90392 93995 10847 14455 21671 14475 18085 18067 36097 25278 36087 32482 28880 36087 32482 32494 36103 65004 65002 65005 68607 65003 65004 75904 72295 72298 75905 79542 75937 75925 79529 72324 72322 75963 72360 93996 90392 93996 61490 57883 72321 75937 75926 72323 72324 68722 50467 46862 39663 36054 25255 21648 32452 28849 21651 18045 83175 79567 75953 72349 79556 75952 65108 61504 65091 61489 68692 65090 75816 72209 68602 65005 79414 75811 39703 61452 65058 54225 57839 14438 18052 72175 72177 65081 65126 57891 79625 97609 65107 97612 97613 94010 97601
21630 14425 7213 25258 64970 72194 75810 57896 57865 47006 50611 46882 18040 28863 61356 64984 43332 43356 43345 18098 21701 7251 7209 54090 57805 7246 10823 25253 50551 57846 61487 65114 75934 43379 43390 68591 54229 21644 10814 14454 54225 21703 25316 43343 36138 43316 39726 46932 39720 36139 54138 36115 39703 36120 36119 50534 39711 36136 54138 32486 46922 36117 39760 43317 36095 39743 25352 79545 25236 18040 7257 7258 7259 18029 14425 14492 10866 0 3637 57753 54117 57719 61309 68594 68576 57705 50488 54095 46885 50487 54101 50488 50488 50488 46881 46872 46879 72110 57694 68593 68590 61300 61298 68509 64903 72113 68508 50488 54107 57695 54097 50486 46885 46884 57708 50494 54106 43306 39739 43279 39669 36064 39672 28878 21656 25258 28862 18042 14433 18036 18026 21640 21630 18028 10819 14444 25284 21651 32494 28885 50553 46941 50604 47000 47004 43387 79544 83147 3602 7210 10823 3609 7219 10822 25249 14430 25239 21634 18032 25239 21634 21646 25255 54156 54154 54157 57759 54155 54156 65056 61447 61450 65057 68694 65089 65077 68681 61476 61474 65115 61512 83148 79544 83148 50642 47035 61473 65089 65078 61475 61476 57874 46875 43270 36071 32462 21663 18056 28860 25257 18059 14453 72327 68719 65105 61501 68708 65104 54260 50656 54243 50641 57844 54242 64968 61361 57754 54157 68566 64963 28855 50604 54210 43377 46991 10846 14460 68583 68585 54233 54278 47043 68777 86761 54259 86764 86765 83162 86753
25249 18044 10832 28877 61333 68557 72173 61515 61484 50625 54230 43245 21659 32482 57719 61347 46951 46975 46964 14461 18064 3614 7239 50453 54168 3609 7222 28872 54170 61465 65106 68733 79553 46998 47009 64954 57848 18043 10844 14484 57844 18066 21679 46962 39757 46935 43345 50551 43339 39758 57757 39734 43322 39739 39738 54153 43330 39755 57757 36105 50541 39736 43379 46936 39714 43362 21715 83164 28855 18070 3620 3621 3622 18059 14455 10855 7229 3637 0 54116 50480 54082 57672 64957 64939 54068 46851 50458 43248 46850 50464 46851 46851 46851 43244 43235 43242 68473 54057 64956 64953 57663 57661 64872 61266 68476 64871 46851 50470 54058 50460 46849 43248 43247 54071 46857 50469 46925 43358 39642 36032 32427 36035 25241 18019 21621 25225 14441 10832 14435 21645 18039 21659 21647 14438 18063 28903 25270 36113 32504 54172 50560 54223 50619 50623 47006 83163 86766 7239 10847 14442 7246 10856 14459 28868 18049 28858 25253 21651 28858 25253 25265 28874 57775 57773 57776 61378 57774 57775 68675 65066 65069 68676 72313 68708 68696 72300 65095 65093 68734 65131 86767 83163 86767 54261 50654 65092 68708 68697 65094 65095 61493 43238 39633 32434 28825 18026 14419 25223 21620 14422 10816 75946 72338 68724 65120 72327 68723 57879 54275 57862 54260 61463 57861 68587 64980 61373 57776 72185 68582 32474 54223 57829 46996 50610 7209 10823 64946 64948 57852 57897 50662 72396 90380 57878 90383 90384 86781 90372
72147 64942 57730 75775 7217 14441 18057 108413 108382 97523 101128 10878 68557 79380 3603 7231 93849 93873 93862 68577 72180 57730 61355 7210 7324 50507 54120 75770 101068 108363 112004 115631 126451 93896 93907 10838 104746 64941 64960 68600 104742 72182 75795 93860 86655 93833 90243 97449 90237 86656 104655 86632 90220 86637 86636 101051 90228 86653 104655 83003 97439 86634 90277 93834 86612 90260 75831 130062 75753 72186 57736 57737 57738 72175 68571 64971 61345 57753 54116 0 3636 7238 10861 10841 10823 10825 7265 10872 10881 10813 14427 10814 14418 14479 10872 10881 10874 21624 3606 10840 10837 10814 10812 18023 14417 21627 18022 10812 14431 7209 14425 10814 10887 10880 21710 14496 18108 93823 90256 14481 18084 21689 25297 36121 36097 32501 28891 61339 57730 61333 68543 64937 68557 68545 61336 64961 75801 72168 83011 79402 101070 97458 101121 97517 97521 93904 130061 133664 61355 64963 61340 61334 64944 68549 75766 64947 75756 72151 68549 75756 72151 72163 75772 104673 104671 104674 108276 104672 104673 115573 111964 111967 115574 119211 115606 115594 119198 111993 111991 115632 112029 133665 130061 133665 101159 97552 111990 115606 115595 111992 111993 108391 18088 14483 28900 25291 43304 39697 36099 32496 46906 43300 122844 119236 115622 112018 119225 115621 104777 101173 104760 101158 108361 104759 115485 111878 108271 104674 119083 115480 79372 101121 104727 93894 97508 46907 50521 10830 10832 104750 104795 97560 119294 137278 104776 137281 137282 133679 137270
68511 61306 54094 72139 10853 18077 21693 104777 104746 93887 97492 7242 64921 75744 7239 10867 90213 90237 90226 64941 68544 54094 57719 10846 3688 46871 50484 72134 97432 104727 108368 111995 122815 90260 90271 14474 101110 61305 61324 64964 101106 68546 72159 90224 83019 90197 86607 93813 86601 83020 101019 82996 86584 83001 83000 97415 86592 83017 101019 79367 93803 82998 86641 90198 82976 86624 72195 126426 72117 68550 54100 54101 54102 68539 64935 61335 57709 54117 50480 3636 0 3602 7225 14477 14459 10829 3629 7236 7245 10847 10840 10848 10848 10843 7236 7245 7238 25260 7242 14476 14473 14450 14448 21659 18053 25263 21658 10848 14467 10845 14457 10846 7251 7244 18074 10860 14472 90187 86620 10845 14448 18053 21661 32485 32461 28865 25255 57703 54094 57697 64907 61301 64921 64909 57700 61325 72165 68532 79375 75766 97434 93822 97485 93881 93885 90268 126425 130028 57719 61327 57704 57698 61308 64913 72130 61311 72120 68515 64913 72120 68515 68527 72136 101037 101035 101038 104640 101036 101037 111937 108328 108331 111938 115575 111970 111958 115562 108357 108355 111996 108393 130029 126425 130029 97523 93916 108354 111970 111959 108356 108357 104755 14452 10847 25264 21655 39668 36061 32463 28860 43270 39664 119208 115600 111986 108382 115589 111985 101141 97537 101124 97522 104725 101123 111849 108242 104635 101038 115447 111844 75736 97485 101091 90258 93872 43271 46885 14466 14468 101114 101159 93924 115658 133642 101140 133645 133646 130043 133634
72113 64908 57696 75741 14455 21679 25295 108379 108348 97489 101094 10844 68523 79346 10841 14469 93815 93839 93828 68543 72146 57696 61321 10842 7290 50473 54086 75736 101034 108329 111970 115597 126417 93862 93873 18076 104712 64907 64926 68566 104708 72148 75761 93826 86621 93799 90209 97415 90203 86622 104621 86598 90186 86603 86602 101017 90194 86619 104621 82969 97405 86600 90243 93800 86578 90226 75797 130028 75719 72152 57702 57703 57704 72141 68537 64937 61311 57719 54082 7238 3602 0 3623 18079 18061 7227 7231 10838 10847 14445 10831 14444 14450 14445 10838 10847 10840 28862 10844 18078 18075 18052 18050 25261 21655 28865 25260 14444 18063 14447 18057 14446 10853 10846 21676 14462 18074 93789 90222 14447 18050 21655 25263 36087 36063 32467 28857 61305 57696 61299 68509 64903 68523 68511 61302 64927 75767 72134 82977 79368 101036 97424 101087 97483 97487 93870 130027 133630 61321 64929 61306 61300 64910 68515 75732 64913 75722 72117 68515 75722 72117 72129 75738 104639 104637 104640 108242 104638 104639 115539 111930 111933 115540 119177 115572 115560 119164 111959 111957 115598 111995 133631 130027 133631 101125 97518 111956 115572 115561 111958 111959 108357 18054 14449 28866 25257 43270 39663 36065 32462 46872 43266 122810 119202 115588 111984 119191 115587 104743 101139 104726 101124 108327 104725 115451 111844 108237 104640 119049 115446 79338 101087 104693 93860 97474 46873 50487 18068 18070 104716 104761 97526 119260 137244 104742 137247 137248 133645 137236
75703 68498 61286 79331 18078 25302 28918 111969 111938 101079 104684 14427 72113 82936 14464 18092 97405 97429 97418 72133 75736 61286 64911 7219 10913 54063 57676 79326 104624 111919 115560 119187 130007 97452 97463 21699 108302 68497 68516 72156 108298 75738 79351 97416 90211 97389 93799 101005 93793 90212 108211 90188 93776 90193 90192 104607 93784 90209 108211 86559 100995 90190 93833 97390 90168 93816 79387 133618 79309 75742 61292 61293 61294 75731 72127 68527 64901 61309 57672 10861 7225 3623 0 21702 21684 3604 10854 10812 14424 10822 7208 10821 14425 14419 14433 14438 14431 25239 10823 21701 21698 14429 14427 21638 18032 25242 21637 10821 14440 10824 14434 10823 14432 14425 25255 18041 21653 97379 93812 18030 21640 25245 28853 39677 39653 36057 32447 64895 61286 64889 72099 68493 72113 72101 64892 68517 79357 75724 86567 82958 104626 101014 104677 101073 101077 97460 133617 137220 64911 68519 64896 64890 68500 72105 79322 68503 79312 75707 72105 79312 75707 75719 79328 108229 108227 108230 111832 108228 108229 119129 115520 115523 119130 122767 119162 119150 122754 115549 115547 119188 115585 137221 133617 137221 104715 101108 115546 119162 119151 115548 115549 111947 21645 18040 32456 28847 46860 43253 39655 36052 50462 46856 126400 122792 119178 115574 122781 119177 108333 104729 108316 104714 111917 108315 119041 115434 111827 108230 122639 119036 82928 104677 108283 97450 101064 50463 54077 21691 21693 108306 108351 101116 122850 140834 108332 140837 140838 137235 140826
82988 75783 68571 86616 7225 3603 7219 119254 119223 108364 111969 21719 79398 90221 7238 3610 104690 104714 104703 79418 83021 68571 72196 18051 18165 61348 64961 86611 111909 119204 122845 126472 137292 104737 104748 10846 115587 75782 75801 79441 115583 83023 86636 104701 97496 104674 101084 108290 101078 97497 115496 97473 101061 97478 97477 111892 101069 97494 115496 93844 108280 97475 101118 104675 97453 101101 86672 140903 86594 83027 68577 68578 68579 83016 79412 75812 72186 68594 64957 10841 14477 18079 21702 0 3619 21666 18106 21713 21722 21654 25268 21655 25259 25320 21713 21722 21715 32465 14447 10848 10845 21655 21653 28864 25258 32468 28863 21653 25272 18050 25266 21655 21728 21721 32551 25337 28949 104664 101097 25322 28925 32530 36138 46962 46938 43342 39732 72180 68571 72174 79384 75778 79398 79386 72177 75802 86642 83009 93852 90243 111911 108299 111962 108358 108362 104745 140902 144505 72196 75804 72181 72175 75785 79390 86607 75788 86597 82992 79390 86597 82992 83004 86613 115514 115512 115515 119117 115513 115514 126414 122805 122808 126415 130052 126447 126435 130039 122834 122832 126473 122870 144506 140902 144506 112000 108393 122831 126447 126436 122833 122834 119232 28929 25324 39741 36132 54145 50538 46940 43337 57747 54141 133685 130077 126463 122859 130066 126462 115618 112014 115601 111999 119202 115600 126326 122719 119112 115515 129924 126321 90213 111962 115568 104735 108349 57748 61362 10838 10840 115591 115636 108401 130135 148119 115617 148122 148123 144520 148111
82970 75765 68553 86598 3606 3618 7234 119236 119205 108346 111951 21701 79380 90203 7220 7229 104672 104696 104685 79400 83003 68553 72178 18033 18147 61330 64943 86593 111891 119186 122827 126454 137274 104719 104730 7227 115569 75764 75783 79423 115565 83005 86618 104683 97478 104656 101066 108272 101060 97479 115478 97455 101043 97460 97459 111874 101051 97476 115478 93826 108262 97457 101100 104657 97435 101083 86654 140885 86576 83009 68559 68560 68561 82998 79394 75794 72168 68576 64939 10823 14459 18061 21684 3619 0 21648 18088 21695 21704 21636 25250 21637 25241 25302 21695 21704 21697 32447 14429 7229 7226 21637 21635 28846 25240 32450 28845 21635 25254 18032 25248 21637 21710 21703 32533 25319 28931 104646 101079 25304 28907 32512 36120 46944 46920 43324 39714 72162 68553 72156 79366 75760 79380 79368 72159 75784 86624 82991 93834 90225 111893 108281 111944 108340 108344 104727 140884 144487 72178 75786 72163 72157 75767 79372 86589 75770 86579 82974 79372 86579 82974 82986 86595 115496 115494 115497 119099 115495 115496 126396 122787 122790 126397 130034 126429 126417 130021 122816 122814 126455 122852 144488 140884 144488 111982 108375 122813 126429 126418 122815 122816 119214 28911 25306 39723 36114 54127 50520 46922 43319 57729 54123 133667 130059 126445 122841 130048 126444 115600 111996 115583 111981 119184 115582 126308 122701 119094 115497 129906 126303 90195 111944 115550 104717 108331 57730 61344 7219 7221 115573 115618 108383 130117 148101 115599 148104 148105 144502 148093
72099 64894 57682 75727 18042 25266 28882 108365 108334 97475 101080 10823 68509 79332 14428 18056 93801 93825 93814 68529 72132 57682 61307 3615 14517 50459 54072 75722 101020 108315 111956 115583 126403 93848 93859 21663 104698 64893 64912 68552 104694 72134 75747 93812 86607 93785 90195 97401 90189 86608 104607 86584 90172 86589 86588 101003 90180 86605 104607 82955 97391 86586 90229 93786 86564 90212 75783 130014 75705 72138 57688 57689 57690 72127 68523 64923 61297 57705 54068 10825 10829 7227 3604 21666 21648 0 10815 7208 10820 7218 3604 7217 10821 10815 10829 10834 10827 21635 7219 21665 21662 10825 10823 18034 14428 21638 18033 7217 10836 7220 10830 7219 10828 10821 21651 14437 18049 93775 90208 14426 18036 21641 25249 36073 36049 32453 28843 61291 57682 61285 68495 64889 68509 68497 61288 64913 75753 72120 82963 79354 101022 97410 101073 97469 97473 93856 130013 133616 61307 64915 61292 61286 64896 68501 75718 64899 75708 72103 68501 75708 72103 72115 75724 104625 104623 104626 108228 104624 104625 115525 111916 111919 115526 119163 115558 115546 119150 111945 111943 115584 111981 133617 130013 133617 101111 97504 111942 115558 115547 111944 111945 108343 18041 14436 28852 25243 43256 39649 36051 32448 46858 43252 122796 119188 115574 111970 119177 115573 104729 101125 104712 101110 108313 104711 115437 111830 108223 104626 119035 115432 79324 101073 104679 93846 97460 46859 50473 21655 21657 104702 104747 97512 119246 137230 104728 137233 137234 133631 137222
64882 57677 50465 68510 14482 21706 25322 101148 101117 90258 93863 3613 61292 72115 10868 14496 86584 86608 86597 61312 64915 50465 54090 10821 7317 43242 46855 68505 93803 101098 104739 108366 119186 86631 86642 18103 97481 57676 57695 61335 97477 64917 68530 86595 79390 86568 82978 90184 82972 79391 97390 79367 82955 79372 79371 93786 82963 79388 97390 75738 90174 79369 83012 86569 79347 82995 68566 122797 68488 64921 50471 50472 50473 64910 61306 57706 54080 50488 46851 7265 3629 7231 10854 18106 18088 10815 0 3607 3616 7218 7211 7219 7219 7214 3607 3616 3609 28841 10871 18105 18102 18031 18029 25240 21634 28844 25239 7219 10838 14426 10828 7217 3622 3615 14445 7231 10843 86558 82991 7216 10819 14424 18032 28856 28832 25236 21626 54074 50465 54068 61278 57672 61292 61280 54071 57696 68536 64903 75746 72137 93805 90193 93856 90252 90256 86639 122796 126399 54090 57698 54075 54069 57679 61284 68501 57682 68491 64886 61284 68491 64886 64898 68507 97408 97406 97409 101011 97407 97408 108308 104699 104702 108309 111946 108341 108329 111933 104728 104726 108367 104764 126400 122796 126400 93894 90287 104725 108341 108330 104727 104728 101126 10823 7218 21635 18026 36039 32432 28834 25231 39641 36035 115579 111971 108357 104753 111960 108356 97512 93908 97495 93893 101096 97494 108220 104613 101006 97409 111818 108215 72107 93856 97462 86629 90243 39642 43256 18095 18097 97485 97530 90295 112029 130013 97511 130016 130017 126414 130005
68489 61284 54072 72117 18089 25313 28929 104755 104724 93865 97470 7220 64899 75722 14475 18103 90191 90215 90204 64919 68522 54072 57697 10821 10924 46849 50462 72112 97410 104705 108346 111973 122793 90238 90249 21710 101088 61283 61302 64942 101084 68524 72137 90202 82997 90175 86585 93791 86579 82998 100997 82974 86562 82979 82978 97393 86570 82995 100997 79345 93781 82976 86619 90176 82954 86602 72173 126404 72095 68528 54078 54079 54080 68517 64913 61313 57687 54095 50458 10872 7236 10838 10812 21713 21695 7208 3607 0 7223 7218 3604 7217 7215 3607 7214 7223 7216 28841 14425 21712 21709 18031 18029 25240 21634 28844 25239 7219 10838 14426 10830 7219 7229 7222 18052 10838 14450 90165 86598 10823 14426 18031 21639 32463 32439 28843 25233 57681 54072 57675 64885 61279 64899 64887 57678 61303 72143 68510 79353 75744 97412 93800 97463 93859 93863 90246 126403 130006 57697 61305 57682 57676 61286 64891 72108 61289 72098 68493 64891 72098 68493 68505 72114 101015 101013 101016 104618 101014 101015 111915 108306 108309 111916 115553 111948 111936 115540 108335 108333 111974 108371 130007 126403 130007 97501 93894 108332 111948 111937 108334 108335 104733 14430 10825 25242 21633 39646 36039 32441 28838 43248 39642 119186 115578 111964 108360 115567 111963 101119 97515 101102 97500 104703 101101 111827 108220 104613 101016 115425 111822 75714 97463 101069 90236 93850 43249 46863 21702 21704 101092 101137 93902 115636 133620 101118 133623 133624 130021 133612
61279 54074 46862 64907 18098 25322 28938 97545 97514 86655 90260 3 57689 68512 14484 18112 82981 83005 82994 57709 61312 46862 50487 7205 10933 39639 43252 64902 90200 97495 101136 104763 115583 83028 83039 21719 93878 54073 54092 57732 93874 61314 64927 82992 75787 82965 79375 86581 79369 75788 93787 75764 79352 75769 75768 90183 79360 75785 93787 72135 86571 75766 79409 82966 75744 79392 64963 119194 64885 61318 46868 46869 46870 61307 57703 54103 50477 46885 43248 10881 7245 10847 14424 21722 21704 10820 3616 7223 0 3602 7216 3603 3603 3616 9 14 7 25225 10809 21721 21718 14415 14413 21624 18018 25228 21623 3603 7222 10810 7212 3601 8 1 10831 3617 7229 82955 79388 3606 7216 10821 14429 25253 25229 21633 18023 50471 46862 50465 57675 54069 57689 57677 50468 54093 64933 61300 72143 68534 90202 86590 90253 86649 86653 83036 119193 122796 50487 54095 50472 50466 54076 57681 64898 54079 64888 61283 57681 64888 61283 61295 64904 93805 93803 93806 97408 93804 93805 104705 101096 101099 104706 108343 104738 104726 108330 101125 101123 104764 101161 122797 119193 122797 90291 86684 101122 104738 104727 101124 101125 97523 7221 3616 18032 14423 32436 28829 25231 21628 36038 32432 111976 108368 104754 101150 108357 104753 93909 90305 93892 90290 97493 93891 104617 101010 97403 93806 108215 104612 68504 90253 93859 83026 86640 36039 39653 21711 21713 93882 93927 86692 108426 126410 93908 126413 126414 122811 126402
64881 57676 50464 68509 18030 25254 28870 101147 101116 90257 93862 3605 61291 72114 14416 18044 86583 86607 86596 61311 64914 50464 54089 3603 14535 43241 46854 68504 93802 101097 104738 108365 119185 86630 86641 21651 97480 57675 57694 61334 97476 64916 68529 86594 79389 86567 82977 90183 82971 79390 97389 79366 82954 79371 79370 93785 82962 79387 97389 75737 90173 79368 83011 86568 79346 82994 68565 122796 68487 64920 50470 50471 50472 64909 61305 57705 54079 50487 46850 10813 10847 14445 10822 21654 21636 7218 7218 7218 3602 0 3614 1 3605 7213 3611 3616 3609 21623 7207 21653 21650 10813 10811 18022 14416 21626 18021 1 3620 7208 3612 1 3610 3603 14433 7219 10831 86557 82990 7208 10818 14423 18031 28855 28831 25235 21625 54073 50464 54067 61277 57671 61291 61279 54070 57695 68535 64902 75745 72136 93804 90192 93855 90251 90255 86638 122795 126398 54089 57697 54074 54068 57678 61283 68500 57681 68490 64885 61283 68490 64885 64897 68506 97407 97405 97408 101010 97406 97407 108307 104698 104701 108308 111945 108340 108328 111932 104727 104725 108366 104763 126399 122795 126399 93893 90286 104724 108340 108329 104726 104727 101125 10823 7218 21634 18025 36038 32431 28833 25230 39640 36034 115578 111970 108356 104752 111959 108355 97511 93907 97494 93892 101095 97493 108219 104612 101005 97408 111817 108214 72106 93855 97461 86628 90242 39641 43255 21643 21645 97484 97529 90294 112028 130012 97510 130015 130016 126413 130004
68495 61290 54078 72123 21644 28868 32484 104761 104730 93871 97476 7219 64905 75728 18030 21658 90197 90221 90210 64925 68528 54078 57703 7217 14528 46855 50468 72118 97416 104711 108352 111979 122799 90244 90255 25265 101094 61289 61308 64948 101090 68530 72143 90208 83003 90181 86591 93797 86585 83004 101003 82980 86568 82985 82984 97399 86576 83001 101003 79351 93787 82982 86625 90182 82960 86608 72179 126410 72101 68534 54084 54085 54086 68523 64919 61319 57693 54101 50464 14427 10840 10831 7208 25268 25250 3604 7211 3604 7216 3614 0 3613 7217 7211 7225 7230 7223 25237 10821 25267 25264 14427 14425 21636 18030 25240 21635 3615 7234 10822 7226 3615 7224 7217 18047 10833 14445 90171 86604 10822 14432 18037 21645 32469 32445 28849 25239 57687 54078 57681 64891 61285 64905 64893 57684 61309 72149 68516 79359 75750 97418 93806 97469 93865 93869 90252 126409 130012 57703 61311 57688 57682 61292 64897 72114 61295 72104 68499 64897 72104 68499 68511 72120 101021 101019 101022 104624 101020 101021 111921 108312 108315 111922 115559 111954 111942 115546 108341 108339 111980 108377 130013 126409 130013 97507 93900 108338 111954 111943 108340 108341 104739 14437 10832 25248 21639 39652 36045 32447 28844 43254 39648 119192 115584 111970 108366 115573 111969 101125 97521 101108 97506 104709 101107 111833 108226 104619 101022 115431 111828 75720 97469 101075 90242 93856 43255 46869 25257 25259 101098 101143 93908 115642 133626 101124 133629 133630 130027 133618
64882 57677 50465 68510 18031 25255 28871 101148 101117 90258 93863 3606 61292 72115 14417 18045 86584 86608 86597 61312 64915 50465 54090 3604 14536 43242 46855 68505 93803 101098 104739 108366 119186 86631 86642 21652 97481 57676 57695 61335 97477 64917 68530 86595 79390 86568 82978 90184 82972 79391 97390 79367 82955 79372 79371 93786 82963 79388 97390 75738 90174 79369 83012 86569 79347 82995 68566 122797 68488 64921 50471 50472 50473 64910 61306 57706 54080 50488 46851 10814 10848 14444 10821 21655 21637 7217 7219 7217 3603 1 3613 0 3604 7212 3612 3617 3610 21624 7208 21654 21651 10814 10812 18023 14417 21627 18022 2 3621 7209 3613 2 3611 3604 14434 7220 10832 86558 82991 7209 10819 14424 18032 28856 28832 25236 21626 54074 50465 54068 61278 57672 61292 61280 54071 57696 68536 64903 75746 72137 93805 90193 93856 90252 90256 86639 122796 126399 54090 57698 54075 54069 57679 61284 68501 57682 68491 64886 61284 68491 64886 64898 68507 97408 97406 97409 101011 97407 97408 108308 104699 104702 108309 111946 108341 108329 111933 104728 104726 108367 104764 126400 122796 126400 93894 90287 104725 108341 108330 104727 104728 101126 10824 7219 21635 18026 36039 32432 28834 25231 39641 36035 115579 111971 108357 104753 111960 108356 97512 93908 97495 93893 101096 97494 108220 104613 101006 97409 111818 108215 72107 93856 97462 86629 90243 39642 43256 21644 21646 97485 97530 90295 112029 130013 97511 130016 130017 126414 130005
64882 57677 50465 68510 21635 28859 32475 101148 101117 90258 93863 3606 61292 72115 18021 21649 86584 86608 86597 61312 64915 50465 54090 7208 14536 43242 46855 68505 93803 101098 104739 108366 119186 86631 86642 25256 97481 57676 57695 61335 97477 64917 68530 86595 79390 86568 82978 90184 82972 79391 97390 79367 82955 79372 79371 93786 82963 79388 97390 75738 90174 79369 83012 86569 79347 82995 68566 122797 68488 64921 50471 50472 50473 64910 61306 57706 54080 50488 46851 14418 10848 14450 14425 25259 25241 10821 7219 7215 3603 3605 7217 3604 0 3608 3612 3617 3610 25228 10812 25258 25255 14418 14416 21627 18021 25231 21626 3606 7225 10813 7217 3606 3611 3604 14434 7220 10832 86558 82991 7209 10819 14424 18032 28856 28832 25236 21626 54074 50465 54068 61278 57672 61292 61280 54071 57696 68536 64903 75746 72137 93805 90193 93856 90252 90256 86639 122796 126399 54090 57698 54075 54069 57679 61284 68501 57682 68491 64886 61284 68491 64886 64898 68507 97408 97406 97409 101011 97407 97408 108308 104699 104702 108309 111946 108341 108329 111933 104728 104726 108367 104764 126400 122796 126400 93894 90287 104725 108341 108330 104727 104728 101126 10824 7219 21635 18026 36039 32432 28834 25231 39641 36035 115579 111971 108357 104753 111960 108356 97512 93908 97495 93893 101096 97494 108220 104613 101006 97409 111818 108215 72107 93856 97462 86629 90243 39642 43256 25248 25250 97485 97530 90295 112029 130013 97511 130016 130017 126414 130005
64882 57677 50465 68510 21696 28920 32536 101148 101117 90258 93863 3613 61292 72115 18082 21710 86584 86608 86597 61312 64915 50465 54090 10816 14531 43242 46855 68505 93803 101098 104739 108366 119186 86631 86642 25317 97481 57676 57695 61335 97477 64917 68530 86595 79390 86568 82978 90184 82972 79391 97390 79367 82955 79372 79371 93786 82963 79388 97390 75738 90174 79369 83012 86569 79347 82995 68566 122797 68488 64921 50471 50472 50473 64910 61306 57706 54080 50488 46851 14479 10843 14445 14419 25320 25302 10815 7214 3607 3616 7213 7211 7212 3608 0 3607 3616 3609 28836 14420 25319 25316 18026 18024 25235 21629 28839 25234 7214 10833 14421 10825 7214 3622 3615 14445 7231 10843 86558 82991 7216 10819 14424 18032 28856 28832 25236 21626 54074 50465 54068 61278 57672 61292 61280 54071 57696 68536 64903 75746 72137 93805 90193 93856 90252 90256 86639 122796 126399 54090 57698 54075 54069 57679 61284 68501 57682 68491 64886 61284 68491 64886 64898 68507 97408 97406 97409 101011 97407 97408 108308 104699 104702 108309 111946 108341 108329 111933 104728 104726 108367 104764 126400 122796 126400 93894 90287 104725 108341 108330 104727 104728 101126 10823 7218 21635 18026 36039 32432 28834 25231 39641 36035 115579 111971 108357 104753 111960 108356 97512 93908 97495 93893 101096 97494 108220 104613 101006 97409 111818 108215 72107 93856 97462 86629 90243 39642 43256 25309 25311 97485 97530 90295 112029 130013 97511 130016 130017 126414 130005
61275 54070 46858 64903 18089 25313 28929 97541 97510 86651 90256 6 57685 68508 14475 18103 82977 83001 82990 57705 61308 46858 50483 7214 10924 39635 43248 64898 90196 97491 101132 104759 115579 83024 83035 21710 93874 54069 54088 57728 93870 61310 64923 82988 75783 82961 79371 86577 79365 75784 93783 75760 79348 75765 75764 90179 79356 75781 93783 72131 86567 75762 79405 82962 75740 79388 64959 119190 64881 61314 46864 46865 46866 61303 57699 54099 50473 46881 43244 10872 7236 10838 14433 21713 21695 10829 3607 7214 9 3611 7225 3612 3612 3607 0 9 2 25234 10818 21712 21709 14424 14422 21633 18027 25237 21632 3612 7231 10819 7221 3610 15 8 10838 3624 7236 82951 79384 3609 7212 10817 14425 25249 25225 21629 18019 50467 46858 50461 57671 54065 57685 57673 50464 54089 64929 61296 72139 68530 90198 86586 90249 86645 86649 83032 119189 122792 50483 54091 50468 50462 54072 57677 64894 54075 64884 61279 57677 64884 61279 61291 64900 93801 93799 93802 97404 93800 93801 104701 101092 101095 104702 108339 104734 104722 108326 101121 101119 104760 101157 122793 119189 122793 90287 86680 101118 104734 104723 101120 101121 97519 7216 3611 18028 14419 32432 28825 25227 21624 36034 32428 111972 108364 104750 101146 108353 104749 93905 90301 93888 90286 97489 93887 104613 101006 97399 93802 108211 104608 68500 90249 93855 83022 86636 36035 39649 21702 21704 93878 93923 86688 108422 126406 93904 126409 126410 122807 126398
61266 54061 46849 64894 18098 25322 28938 97532 97501 86642 90247 11 57676 68499 14484 18112 82968 82992 82981 57696 61299 46849 50474 7219 10933 39626 43239 64889 90187 97482 101123 104750 115570 83015 83026 21719 93865 54060 54079 57719 93861 61301 64914 82979 75774 82952 79362 86568 79356 75775 93774 75751 79339 75756 75755 90170 79347 75772 93774 72122 86558 75753 79396 82953 75731 79379 64950 119181 64872 61305 46855 46856 46857 61294 57690 54090 50464 46872 43235 10881 7245 10847 14438 21722 21704 10834 3616 7223 14 3616 7230 3617 3617 3616 9 0 7 25239 10823 21721 21718 14429 14427 21638 18032 25242 21637 3617 7236 10824 7226 3615 20 13 10843 3629 7241 82942 79375 3614 7203 10808 14416 25240 25216 21620 18010 50458 46849 50452 57662 54056 57676 57664 50455 54080 64920 61287 72130 68521 90189 86577 90240 86636 86640 83023 119180 122783 50474 54082 50459 50453 54063 57668 64885 54066 64875 61270 57668 64875 61270 61282 64891 93792 93790 93793 97395 93791 93792 104692 101083 101086 104693 108330 104725 104713 108317 101112 101110 104751 101148 122784 119180 122784 90278 86671 101109 104725 104714 101111 101112 97510 7207 3602 18019 14410 32423 28816 25218 21615 36025 32419 111963 108355 104741 101137 108344 104740 93896 90292 93879 90277 97480 93878 104604 100997 97390 93793 108202 104599 68491 90240 93846 83013 86627 36026 39640 21711 21713 93869 93914 86679 108413 126397 93895 126400 126401 122798 126389
61273 54068 46856 64901 18091 25315 28931 97539 97508 86649 90254 4 57683 68506 14477 18105 82975 82999 82988 57703 61306 46856 50481 7212 10926 39633 43246 64896 90194 97489 101130 104757 115577 83022 83033 21712 93872 54067 54086 57726 93868 61308 64921 82986 75781 82959 79369 86575 79363 75782 93781 75758 79346 75763 75762 90177 79354 75779 93781 72129 86565 75760 79403 82960 75738 79386 64957 119188 64879 61312 46862 46863 46864 61301 57697 54097 50471 46879 43242 10874 7238 10840 14431 21715 21697 10827 3609 7216 7 3609 7223 3610 3610 3609 2 7 0 25232 10816 21714 21711 14422 14420 21631 18025 25235 21630 3610 7229 10817 7219 3608 13 6 10836 3622 7234 82949 79382 3607 7210 10815 14423 25247 25223 21627 18017 50465 46856 50459 57669 54063 57683 57671 50462 54087 64927 61294 72137 68528 90196 86584 90247 86643 86647 83030 119187 122790 50481 54089 50466 50460 54070 57675 64892 54073 64882 61277 57675 64882 61277 61289 64898 93799 93797 93800 97402 93798 93799 104699 101090 101093 104700 108337 104732 104720 108324 101119 101117 104758 101155 122791 119187 122791 90285 86678 101116 104732 104721 101118 101119 97517 7214 3609 18026 14417 32430 28823 25225 21622 36032 32426 111970 108362 104748 101144 108351 104747 93903 90299 93886 90284 97487 93885 104611 101004 97397 93800 108209 104606 68498 90247 93853 83020 86634 36033 39647 21704 21706 93876 93921 86686 108420 126404 93902 126407 126408 122805 126396
86504 79299 72087 90132 28841 36065 39681 122770 122739 111880 115485 25228 82914 93737 25227 28855 108206 108230 108219 82934 86537 72087 75712 18020 28948 64864 68477 90127 115425 122720 126361 129988 140808 108253 108264 32462 119103 79298 79317 82957 119099 86539 90152 108217 101012 108190 104600 111806 104594 101013 119012 100989 104577 100994 100993 115408 104585 101010 119012 97360 111796 100991 104634 108191 100969 104617 90188 144419 90110 86543 72093 72094 72095 86532 82928 79328 75702 72110 68473 21624 25260 28862 25239 32465 32447 21635 28841 28841 25225 21623 25237 21624 25228 28836 25234 25239 25232 0 18018 32464 32461 10814 10812 10813 7207 7207 3602 21622 25241 14415 25235 21624 25233 25226 36056 28842 32454 108180 104613 28831 32441 36046 39654 50478 50454 46858 43248 75696 72087 75690 82900 79294 82914 82902 75693 79318 90158 86525 97368 93759 115427 111815 115478 111874 111878 108261 144418 148021 75712 79320 75697 75691 79301 82906 90123 79304 90113 86508 82906 90113 86508 86520 90129 119030 119028 119031 122633 119029 119030 129930 126321 126324 129931 133568 129963 129951 133555 126350 126348 129989 126386 148022 144418 148022 115516 111909 126347 129963 129952 126349 126350 122748 32446 28841 43257 39648 57661 54054 50456 46853 61263 57657 137201 133593 129979 126375 133582 129978 119134 115530 119117 115515 122718 119116 129842 126235 122628 119031 133440 129837 93729 115478 119084 108251 111865 61264 64878 32454 32456 119107 119152 111917 133651 151635 119133 151638 151639 148036 151627
72088 64883 57671 75716 10823 18047 21663 108354 108323 97464 101069 10812 68498 79321 7209 10837 93790 93814 93803 68518 72121 57671 61296 3604 10930 50448 54061 75711 101009 108304 111945 115572 126392 93837 93848 14444 104687 64882 64901 68541 104683 72123 75736 93801 86596 93774 90184 97390 90178 86597 104596 86573 90161 86578 86577 100992 90169 86594 104596 82944 97380 86575 90218 93775 86553 90201 75772 130003 75694 72127 57677 57678 57679 72116 68512 64912 61286 57694 54057 3606 7242 10844 10823 14447 14429 7219 10871 14425 10809 7207 10821 7208 10812 14420 10818 10823 10816 18018 0 14446 14443 7208 7206 14417 10811 18021 14416 7206 10825 3603 10819 7208 10817 10810 21640 14426 18038 93764 90197 14415 18025 21630 25238 36062 36038 32442 28832 61280 57671 61274 68484 64878 68498 68486 61277 64902 75742 72109 82952 79343 101011 97399 101062 97458 97462 93845 130002 133605 61296 64904 61281 61275 64885 68490 75707 64888 75697 72092 68490 75697 72092 72104 75713 104614 104612 104615 108217 104613 104614 115514 111905 111908 115515 119152 115547 115535 119139 111934 111932 115573 111970 133606 130002 133606 101100 97493 111931 115547 115536 111933 111934 108332 18030 14425 28841 25232 43245 39638 36040 32437 46847 43241 122785 119177 115563 111959 119166 115562 104718 101114 104701 101099 108302 104700 115426 111819 108212 104615 119024 115421 79313 101062 104668 93835 97449 46848 50462 14436 14438 104691 104736 97501 119235 137219 104717 137222 137223 133620 137211
82987 75782 68570 86615 3623 10847 14463 119253 119222 108363 111968 21718 79397 90220 7237 10865 104689 104713 104702 79417 83020 68570 72195 18050 18164 61347 64960 86610 111908 119203 122844 126471 137291 104736 104747 4 115586 75781 75800 79440 115582 83022 86635 104700 97495 104673 101083 108289 101077 97496 115495 97472 101060 97477 97476 111891 101068 97493 115495 93843 108279 97474 101117 104674 97452 101100 86671 140902 86593 83026 68576 68577 68578 83015 79411 75811 72185 68593 64956 10840 14476 18078 21701 10848 7229 21665 18105 21712 21721 21653 25267 21654 25258 25319 21712 21721 21714 32464 14446 0 3 21654 21652 28863 25257 32467 28862 21652 25271 18049 25265 21654 21727 21720 32550 25336 28948 104663 101096 25321 28924 32529 36137 46961 46937 43341 39731 72179 68570 72173 79383 75777 79397 79385 72176 75801 86641 83008 93851 90242 111910 108298 111961 108357 108361 104744 140901 144504 72195 75803 72180 72174 75784 79389 86606 75787 86596 82991 79389 86596 82991 83003 86612 115513 115511 115514 119116 115512 115513 126413 122804 122807 126414 130051 126446 126434 130038 122833 122831 126472 122869 144505 140901 144505 111999 108392 122830 126446 126435 122832 122833 119231 28928 25323 39740 36131 54144 50537 46939 43336 57746 54140 133684 130076 126462 122858 130065 126461 115617 112013 115600 111998 119201 115599 126325 122718 119111 115514 129923 126320 90212 111961 115567 104734 108348 57747 61361 10 7238 115590 115635 108400 130134 148118 115616 148121 148122 144519 148110
82984 75779 68567 86612 3620 10844 14460 119250 119219 108360 111965 21715 79394 90217 7234 10862 104686 104710 104699 79414 83017 68567 72192 18047 18161 61344 64957 86607 111905 119200 122841 126468 137288 104733 104744 1 115583 75778 75797 79437 115579 83019 86632 104697 97492 104670 101080 108286 101074 97493 115492 97469 101057 97474 97473 111888 101065 97490 115492 93840 108276 97471 101114 104671 97449 101097 86668 140899 86590 83023 68573 68574 68575 83012 79408 75808 72182 68590 64953 10837 14473 18075 21698 10845 7226 21662 18102 21709 21718 21650 25264 21651 25255 25316 21709 21718 21711 32461 14443 3 0 21651 21649 28860 25254 32464 28859 21649 25268 18046 25262 21651 21724 21717 32547 25333 28945 104660 101093 25318 28921 32526 36134 46958 46934 43338 39728 72176 68567 72170 79380 75774 79394 79382 72173 75798 86638 83005 93848 90239 111907 108295 111958 108354 108358 104741 140898 144501 72192 75800 72177 72171 75781 79386 86603 75784 86593 82988 79386 86593 82988 83000 86609 115510 115508 115511 119113 115509 115510 126410 122801 122804 126411 130048 126443 126431 130035 122830 122828 126469 122866 144502 140898 144502 111996 108389 122827 126443 126432 122829 122830 119228 28925 25320 39737 36128 54141 50534 46936 43333 57743 54137 133681 130073 126459 122855 130062 126458 115614 112010 115597 111995 119198 115596 126322 122715 119108 115511 129920 126317 90209 111958 115564 104731 108345 57744 61358 7 7235 115587 115632 108397 130131 148115 115613 148118 148119 144516 148107
75694 68489 61277 79322 18031 25255 28871 111960 111929 101070 104675 14418 72104 82927 14417 18045 97396 97420 97409 72124 75727 61277 64902 7210 18138 54054 57667 79317 104615 111910 115551 119178 129998 97443 97454 21652 108293 68488 68507 72147 108289 75729 79342 97407 90202 97380 93790 100996 93784 90203 108202 90179 93767 90184 90183 104598 93775 90200 108202 86550 100986 90181 93824 97381 90159 93807 79378 133609 79300 75733 61283 61284 61285 75722 72118 68518 64892 61300 57663 10814 14450 18052 14429 21655 21637 10825 18031 18031 14415 10813 14427 10814 14418 18026 14424 14429 14422 10814 7208 21654 21651 0 2 7213 3607 10817 7212 10812 14431 3605 14425 10814 14423 14416 25246 18032 21644 97370 93803 18021 21631 25236 28844 39668 39644 36048 32438 64886 61277 64880 72090 68484 72104 72092 64883 68508 79348 75715 86558 82949 104617 101005 104668 101064 101068 97451 133608 137211 64902 68510 64887 64881 68491 72096 79313 68494 79303 75698 72096 79303 75698 75710 79319 108220 108218 108221 111823 108219 108220 119120 115511 115514 119121 122758 119153 119141 122745 115540 115538 119179 115576 137212 133608 137212 104706 101099 115537 119153 119142 115539 115540 111938 21636 18031 32447 28838 46851 43244 39646 36043 50453 46847 126391 122783 119169 115565 122772 119168 108324 104720 108307 104705 111908 108306 119032 115425 111818 108221 122630 119027 82919 104668 108274 97441 101055 50454 54068 21644 21646 108297 108342 101107 122841 140825 108323 140828 140829 137226 140817
75692 68487 61275 79320 18029 25253 28869 111958 111927 101068 104673 14416 72102 82925 14415 18043 97394 97418 97407 72122 75725 61275 64900 7208 18136 54052 57665 79315 104613 111908 115549 119176 129996 97441 97452 21650 108291 68486 68505 72145 108287 75727 79340 97405 90200 97378 93788 100994 93782 90201 108200 90177 93765 90182 90181 104596 93773 90198 108200 86548 100984 90179 93822 97379 90157 93805 79376 133607 79298 75731 61281 61282 61283 75720 72116 68516 64890 61298 57661 10812 14448 18050 14427 21653 21635 10823 18029 18029 14413 10811 14425 10812 14416 18024 14422 14427 14420 10812 7206 21652 21649 2 0 7211 3605 10815 7210 10810 14429 3603 14423 10812 14421 14414 25244 18030 21642 97368 93801 18019 21629 25234 28842 39666 39642 36046 32436 64884 61275 64878 72088 68482 72102 72090 64881 68506 79346 75713 86556 82947 104615 101003 104666 101062 101066 97449 133606 137209 64900 68508 64885 64879 68489 72094 79311 68492 79301 75696 72094 79301 75696 75708 79317 108218 108216 108219 111821 108217 108218 119118 115509 115512 119119 122756 119151 119139 122743 115538 115536 119177 115574 137210 133606 137210 104704 101097 115535 119151 119140 115537 115538 111936 21634 18029 32445 28836 46849 43242 39644 36041 50451 46845 126389 122781 119167 115563 122770 119166 108322 104718 108305 104703 111906 108304 119030 115423 111816 108219 122628 119025 82917 104666 108272 97439 101053 50452 54066 21642 21644 108295 108340 101105 122839 140823 108321 140826 140827 137224 140815
82903 75698 68486 86531 25240 32464 36080 119169 119138 108279 111884 21627 79313 90136 21626 25254 104605 104629 104618 79333 82936 68486 72111 14419 25347 61263 64876 86526 111824 119119 122760 126387 137207 104652 104663 28861 115502 75697 75716 79356 115498 82938 86551 104616 97411 104589 100999 108205 100993 97412 115411 97388 100976 97393 97392 111807 100984 97409 115411 93759 108195 97390 101033 104590 97368 101016 86587 140818 86509 82942 68492 68493 68494 82931 79327 75727 72101 68509 64872 18023 21659 25261 21638 28864 28846 18034 25240 25240 21624 18022 21636 18023 21627 25235 21633 21638 21631 10813 14417 28863 28860 7213 7211 0 3606 10816 7211 18021 21640 10814 21634 18023 21632 21625 32455 25241 28853 104579 101012 25230 28840 32445 36053 46877 46853 43257 39647 72095 68486 72089 79299 75693 79313 79301 72092 75717 86557 82924 93767 90158 111826 108214 111877 108273 108277 104660 140817 144420 72111 75719 72096 72090 75700 79305 86522 75703 86512 82907 79305 86512 82907 82919 86528 115429 115427 115430 119032 115428 115429 126329 122720 122723 126330 129967 126362 126350 129954 122749 122747 126388 122785 144421 140817 144421 111915 108308 122746 126362 126351 122748 122749 119147 28845 25240 39656 36047 54060 50453 46855 43252 57662 54056 133600 129992 126378 122774 129981 126377 115533 111929 115516 111914 119117 115515 126241 122634 119027 115430 129839 126236 90128 111877 115483 104650 108264 57663 61277 28853 28855 115506 115551 108316 130050 148034 115532 148037 148038 144435 148026
79297 72092 64880 82925 21634 28858 32474 115563 115532 104673 108278 18021 75707 86530 18020 21648 100999 101023 101012 75727 79330 64880 68505 10813 21741 57657 61270 82920 108218 115513 119154 122781 133601 101046 101057 25255 111896 72091 72110 75750 111892 79332 82945 101010 93805 100983 97393 104599 97387 93806 111805 93782 97370 93787 93786 108201 97378 93803 111805 90153 104589 93784 97427 100984 93762 97410 82981 137212 82903 79336 64886 64887 64888 79325 75721 72121 68495 64903 61266 14417 18053 21655 18032 25258 25240 14428 21634 21634 18018 14416 18030 14417 18021 21629 18027 18032 18025 7207 10811 25257 25254 3607 3605 3606 0 7210 3605 14415 18034 7208 18028 14417 18026 18019 28849 21635 25247 100973 97406 21624 25234 28839 32447 43271 43247 39651 36041 68489 64880 68483 75693 72087 75707 75695 68486 72111 82951 79318 90161 86552 108220 104608 108271 104667 104671 101054 137211 140814 68505 72113 68490 68484 72094 75699 82916 72097 82906 79301 75699 82906 79301 79313 82922 111823 111821 111824 115426 111822 111823 122723 119114 119117 122724 126361 122756 122744 126348 119143 119141 122782 119179 140815 137211 140815 108309 104702 119140 122756 122745 119142 119143 115541 25239 21634 36050 32441 50454 46847 43249 39646 54056 50450 129994 126386 122772 119168 126375 122771 111927 108323 111910 108308 115511 111909 122635 119028 115421 111824 126233 122630 86522 108271 111877 101044 104658 54057 57671 25247 25249 111900 111945 104710 126444 144428 111926 144431 144432 140829 144420
86507 79302 72090 90135 28844 36068 39684 122773 122742 111883 115488 25231 82917 93740 25230 28858 108209 108233 108222 82937 86540 72090 75715 18023 28951 64867 68480 90130 115428 122723 126364 129991 140811 108256 108267 32465 119106 79301 79320 82960 119102 86542 90155 108220 101015 108193 104603 111809 104597 101016 119015 100992 104580 100997 100996 115411 104588 101013 119015 97363 111799 100994 104637 108194 100972 104620 90191 144422 90113 86546 72096 72097 72098 86535 82931 79331 75705 72113 68476 21627 25263 28865 25242 32468 32450 21638 28844 28844 25228 21626 25240 21627 25231 28839 25237 25242 25235 7207 18021 32467 32464 10817 10815 10816 7210 0 3605 21625 25244 14418 25238 21627 25236 25229 36059 28845 32457 108183 104616 28834 32444 36049 39657 50481 50457 46861 43251 75699 72090 75693 82903 79297 82917 82905 75696 79321 90161 86528 97371 93762 115430 111818 115481 111877 111881 108264 144421 148024 75715 79323 75700 75694 79304 82909 90126 79307 90116 86511 82909 90116 86511 86523 90132 119033 119031 119034 122636 119032 119033 129933 126324 126327 129934 133571 129966 129954 133558 126353 126351 129992 126389 148025 144421 148025 115519 111912 126350 129966 129955 126352 126353 122751 32449 28844 43260 39651 57664 54057 50459 46856 61266 57660 137204 133596 129982 126378 133585 129981 119137 115533 119120 115518 122721 119119 129845 126238 122631 119034 133443 129840 93732 115481 119087 108254 111868 61267 64881 32457 32459 119110 119155 111920 133654 151638 119136 151641 151642 148039 151630
82902 75697 68485 86530 25239 32463 36079 119168 119137 108278 111883 21626 79312 90135 21625 25253 104604 104628 104617 79332 82935 68485 72110 14418 25346 61262 64875 86525 111823 119118 122759 126386 137206 104651 104662 28860 115501 75696 75715 79355 115497 82937 86550 104615 97410 104588 100998 108204 100992 97411 115410 97387 100975 97392 97391 111806 100983 97408 115410 93758 108194 97389 101032 104589 97367 101015 86586 140817 86508 82941 68491 68492 68493 82930 79326 75726 72100 68508 64871 18022 21658 25260 21637 28863 28845 18033 25239 25239 21623 18021 21635 18022 21626 25234 21632 21637 21630 3602 14416 28862 28859 7212 7210 7211 3605 3605 0 18020 21639 10813 21633 18022 21631 21624 32454 25240 28852 104578 101011 25229 28839 32444 36052 46876 46852 43256 39646 72094 68485 72088 79298 75692 79312 79300 72091 75716 86556 82923 93766 90157 111825 108213 111876 108272 108276 104659 140816 144419 72110 75718 72095 72089 75699 79304 86521 75702 86511 82906 79304 86511 82906 82918 86527 115428 115426 115429 119031 115427 115428 126328 122719 122722 126329 129966 126361 126349 129953 122748 122746 126387 122784 144420 140816 144420 111914 108307 122745 126361 126350 122747 122748 119146 28844 25239 39655 36046 54059 50452 46854 43251 57661 54055 133599 129991 126377 122773 129980 126376 115532 111928 115515 111913 119116 115514 126240 122633 119026 115429 129838 126235 90127 111876 115482 104649 108263 57662 61276 28852 28854 115505 115550 108315 130049 148033 115531 148036 148037 144434 148025
64882 57677 50465 68510 18029 25253 28869 101148 101117 90258 93863 3606 61292 72115 14415 18043 86584 86608 86597 61312 64915 50465 54090 3602 14536 43242 46855 68505 93803 101098 104739 108366 119186 86631 86642 21650 97481 57676 57695 61335 97477 64917 68530 86595 79390 86568 82978 90184 82972 79391 97390 79367 82955 79372 79371 93786 82963 79388 97390 75738 90174 79369 83012 86569 79347 82995 68566 122797 68488 64921 50471 50472 50473 64910 61306 57706 54080 50488 46851 10812 10848 14444 10821 21653 21635 7217 7219 7219 3603 1 3615 2 3606 7214 3612 3617 3610 21622 7206 21652 21649 10812 10810 18021 14415 21625 18020 0 3619 7207 3613 2 3611 3604 14434 7220 10832 86558 82991 7209 10819 14424 18032 28856 28832 25236 21626 54074 50465 54068 61278 57672 61292 61280 54071 57696 68536 64903 75746 72137 93805 90193 93856 90252 90256 86639 122796 126399 54090 57698 54075 54069 57679 61284 68501 57682 68491 64886 61284 68491 64886 64898 68507 97408 97406 97409 101011 97407 97408 108308 104699 104702 108309 111946 108341 108329 111933 104728 104726 108367 104764 126400 122796 126400 93894 90287 104725 108341 108330 104727 104728 101126 10824 7219 21635 18026 36039 32432 28834 25231 39641 36035 115579 111971 108357 104753 111960 108356 97512 93908 97495 93893 101096 97494 108220 104613 101006 97409 111818 108215 72107 93856 97462 86629 90243 39642 43256 21642 21644 97485 97530 90295 112029 130013 97511 130016 130017 126414 130005
68501 61296 54084 72129 21648 28872 32488 104767 104736 93877 97482 7225 64911 75734 18034 21662 90203 90227 90216 64931 68534 54084 57709 7221 18155 46861 50474 72124 97422 104717 108358 111985 122805 90250 90261 25269 101100 61295 61314 64954 101096 68536 72149 90214 83009 90187 86597 93803 86591 83010 101009 82986 86574 82991 82990 97405 86582 83007 101009 79357 93793 82988 86631 90188 82966 86614 72185 126416 72107 68540 54090 54091 54092 68529 64925 61325 57699 54107 50470 14431 14467 18063 14440 25272 25254 10836 10838 10838 7222 3620 7234 3621 7225 10833 7231 7236 7229 25241 10825 25271 25268 14431 14429 21640 18034 25244 21639 3619 0 10826 7232 3621 7230 7223 18053 10839 14451 90177 86610 10828 14438 18043 21651 32475 32451 28855 25245 57693 54084 57687 64897 61291 64911 64899 57690 61315 72155 68522 79365 75756 97424 93812 97475 93871 93875 90258 126415 130018 57709 61317 57694 57688 61298 64903 72120 61301 72110 68505 64903 72110 68505 68517 72126 101027 101025 101028 104630 101026 101027 111927 108318 108321 111928 115565 111960 111948 115552 108347 108345 111986 108383 130019 126415 130019 97513 93906 108344 111960 111949 108346 108347 104745 14443 10838 25254 21645 39658 36051 32453 28850 43260 39654 119198 115590 111976 108372 115579 111975 101131 97527 101114 97512 104715 101113 111839 108232 104625 101028 115437 111834 75726 97475 101081 90248 93862 43261 46875 25261 25263 101104 101149 93914 115648 133632 101130 133635 133636 130033 133624
72089 64884 57672 75717 14426 21650 25266 108355 108324 97465 101070 10813 68499 79322 10812 14440 93791 93815 93804 68519 72122 57672 61297 3605 14533 50449 54062 75712 101010 108305 111946 115573 126393 93838 93849 18047 104688 64883 64902 68542 104684 72124 75737 93802 86597 93775 90185 97391 90179 86598 104597 86574 90162 86579 86578 100993 90170 86595 104597 82945 97381 86576 90219 93776 86554 90202 75773 130004 75695 72128 57678 57679 57680 72117 68513 64913 61287 57695 54058 7209 10845 14447 10824 18050 18032 7220 14426 14426 10810 7208 10822 7209 10813 14421 10819 10824 10817 14415 3603 18049 18046 3605 3603 10814 7208 14418 10813 7207 10826 0 10820 7209 10818 10811 21641 14427 18039 93765 90198 14416 18026 21631 25239 36063 36039 32443 28833 61281 57672 61275 68485 64879 68499 68487 61278 64903 75743 72110 82953 79344 101012 97400 101063 97459 97463 93846 130003 133606 61297 64905 61282 61276 64886 68491 75708 64889 75698 72093 68491 75698 72093 72105 75714 104615 104613 104616 108218 104614 104615 115515 111906 111909 115516 119153 115548 115536 119140 111935 111933 115574 111971 133607 130003 133607 101101 97494 111932 115548 115537 111934 111935 108333 18031 14426 28842 25233 43246 39639 36041 32438 46848 43242 122786 119178 115564 111960 119167 115563 104719 101115 104702 101100 108303 104701 115427 111820 108213 104616 119025 115422 79314 101063 104669 93836 97450 46849 50463 18039 18041 104692 104737 97502 119236 137220 104718 137223 137224 133621 137212
68491 61286 54074 72119 21642 28866 32482 104757 104726 93867 97472 7215 64901 75724 18028 21656 90193 90217 90206 64921 68524 54074 57699 7215 18145 46851 50464 72114 97412 104707 108348 111975 122795 90240 90251 25263 101090 61285 61304 64944 101086 68526 72139 90204 82999 90177 86587 93793 86581 83000 100999 82976 86564 82981 82980 97395 86572 82997 100999 79347 93783 82978 86621 90178 82956 86604 72175 126406 72097 68530 54080 54081 54082 68519 64915 61315 57689 54097 50460 14425 14457 18057 14434 25266 25248 10830 10828 10830 7212 3612 7226 3613 7217 10825 7221 7226 7219 25235 10819 25265 25262 14425 14423 21634 18028 25238 21633 3613 7232 10820 0 3611 7220 7213 18043 10829 14441 90167 86600 10818 14428 18033 21641 32465 32441 28845 25235 57683 54074 57677 64887 61281 64901 64889 57680 61305 72145 68512 79355 75746 97414 93802 97465 93861 93865 90248 126405 130008 57699 61307 57684 57678 61288 64893 72110 61291 72100 68495 64893 72100 68495 68507 72116 101017 101015 101018 104620 101016 101017 111917 108308 108311 111918 115555 111950 111938 115542 108337 108335 111976 108373 130009 126405 130009 97503 93896 108334 111950 111939 108336 108337 104735 14433 10828 25244 21635 39648 36041 32443 28840 43250 39644 119188 115580 111966 108362 115569 111965 101121 97517 101104 97502 104705 101103 111829 108222 104615 101018 115427 111824 75716 97465 101071 90238 93852 43251 46865 25255 25257 101094 101139 93904 115638 133622 101120 133625 133626 130023 133614
64880 57675 50463 68508 18031 25255 28871 101146 101115 90256 93861 3604 61290 72113 14417 18045 86582 86606 86595 61310 64913 50463 54088 3604 14534 43240 46853 68503 93801 101096 104737 108364 119184 86629 86640 21652 97479 57674 57693 61333 97475 64915 68528 86593 79388 86566 82976 90182 82970 79389 97388 79365 82953 79370 79369 93784 82961 79386 97388 75736 90172 79367 83010 86567 79345 82993 68564 122795 68486 64919 50469 50470 50471 64908 61304 57704 54078 50486 46849 10814 10846 14446 10823 21655 21637 7219 7217 7219 3601 1 3615 2 3606 7214 3610 3615 3608 21624 7208 21654 21651 10814 10812 18023 14417 21627 18022 2 3621 7209 3611 0 3609 3602 14432 7218 10830 86556 82989 7207 10817 14422 18030 28854 28830 25234 21624 54072 50463 54066 61276 57670 61290 61278 54069 57694 68534 64901 75744 72135 93803 90191 93854 90250 90254 86637 122794 126397 54088 57696 54073 54067 57677 61282 68499 57680 68489 64884 61282 68489 64884 64896 68505 97406 97404 97407 101009 97405 97406 108306 104697 104700 108307 111944 108339 108327 111931 104726 104724 108365 104762 126398 122794 126398 93892 90285 104723 108339 108328 104725 104726 101124 10822 7217 21633 18024 36037 32430 28832 25229 39639 36033 115577 111969 108355 104751 111958 108354 97510 93906 97493 93891 101094 97492 108218 104611 101004 97407 111816 108213 72105 93854 97460 86627 90241 39640 43254 21644 21646 97483 97528 90293 112027 130011 97509 130014 130015 126412 130003
61279 54074 46862 64907 18104 25328 28944 97545 97514 86655 90260 9 57689 68512 14490 18118 82981 83005 82994 57709 61312 46862 50487 7213 10939 39639 43252 64902 90200 97495 101136 104763 115583 83028 83039 21725 93878 54073 54092 57732 93874 61314 64927 82992 75787 82965 79375 86581 79369 75788 93787 75764 79352 75769 75768 90183 79360 75785 93787 72135 86571 75766 79409 82966 75744 79392 64963 119194 64885 61318 46868 46869 46870 61307 57703 54103 50477 46885 43248 10887 7251 10853 14432 21728 21710 10828 3622 7229 8 3610 7224 3611 3611 3622 15 20 13 25233 10817 21727 21724 14423 14421 21632 18026 25236 21631 3611 7230 10818 7220 3609 0 7 10823 3609 7221 82955 79388 3606 7216 10821 14429 25253 25229 21633 18023 50471 46862 50465 57675 54069 57689 57677 50468 54093 64933 61300 72143 68534 90202 86590 90253 86649 86653 83036 119193 122796 50487 54095 50472 50466 54076 57681 64898 54079 64888 61283 57681 64888 61283 61295 64904 93805 93803 93806 97408 93804 93805 104705 101096 101099 104706 108343 104738 104726 108330 101125 101123 104764 101161 122797 119193 122797 90291 86684 101122 104738 104727 101124 101125 97523 7227 3622 18032 14423 32436 28829 25231 21628 36038 32432 111976 108368 104754 101150 108357 104753 93909 90305 93892 90290 97493 93891 104617 101010 97403 93806 108215 104612 68504 90253 93859 83026 86640 36039 39653 21717 21719 93882 93927 86692 108426 126410 93908 126413 126414 122811 126402
61278 54073 46861 64906 18097 25321 28937 97544 97513 86654 90259 2 57688 68511 14483 18111 82980 83004 82993 57708 61311 46861 50486 7206 10932 39638 43251 64901 90199 97494 101135 104762 115582 83027 83038 21718 93877 54072 54091 57731 93873 61313 64926 82991 75786 82964 79374 86580 79368 75787 93786 75763 79351 75768 75767 90182 79359 75784 93786 72134 86570 75765 79408 82965 75743 79391 64962 119193 64884 61317 46867 46868 46869 61306 57702 54102 50476 46884 43247 10880 7244 10846 14425 21721 21703 10821 3615 7222 1 3603 7217 3604 3604 3615 8 13 6 25226 10810 21720 21717 14416 14414 21625 18019 25229 21624 3604 7223 10811 7213 3602 7 0 10830 3616 7228 82954 79387 3605 7215 10820 14428 25252 25228 21632 18022 50470 46861 50464 57674 54068 57688 57676 50467 54092 64932 61299 72142 68533 90201 86589 90252 86648 86652 83035 119192 122795 50486 54094 50471 50465 54075 57680 64897 54078 64887 61282 57680 64887 61282 61294 64903 93804 93802 93805 97407 93803 93804 104704 101095 101098 104705 108342 104737 104725 108329 101124 101122 104763 101160 122796 119192 122796 90290 86683 101121 104737 104726 101123 101124 97522 7220 3615 18031 14422 32435 28828 25230 21627 36037 32431 111975 108367 104753 101149 108356 104752 93908 90304 93891 90289 97492 93890 104616 101009 97402 93805 108214 104611 68503 90252 93858 83025 86639 36038 39652 21710 21712 93881 93926 86691 108425 126409 93907 126412 126413 122810 126401
72102 64897 57685 75730 28927 36151 39767 108368 108337 97478 101083 10832 68512 79335 25313 28941 93804 93828 93817 68532 72135 57685 61310 18036 21762 50462 54075 75725 101023 108318 111959 115586 126406 93851 93862 32548 104701 64896 64915 68555 104697 72137 75750 93815 86610 93788 90198 97404 90192 86611 104610 86587 90175 86592 86591 101006 90183 86608 104610 82958 97394 86589 90232 93789 86567 90215 75786 130017 75708 72141 57691 57692 57693 72130 68526 64926 61300 57708 54071 21710 18074 21676 25255 32551 32533 21651 14445 18052 10831 14433 18047 14434 14434 14445 10838 10843 10836 36056 21640 32550 32547 25246 25244 32455 28849 36059 32454 14434 18053 21641 18043 14432 10823 10830 0 7214 3602 93778 90211 14429 18039 21644 25252 36076 36052 32456 28846 61294 57685 61288 68498 64892 68512 68500 61291 64916 75756 72123 82966 79357 101025 97413 101076 97472 97476 93859 130016 133619 61310 64918 61295 61289 64899 68504 75721 64902 75711 72106 68504 75711 72106 72118 75727 104628 104626 104629 108231 104627 104628 115528 111919 111922 115529 119166 115561 115549 119153 111948 111946 115587 111984 133620 130016 133620 101114 97507 111945 115561 115550 111947 111948 108346 18050 14445 28855 25246 43259 39652 36054 32451 46861 43255 122799 119191 115577 111973 119180 115576 104732 101128 104715 101113 108316 104714 115440 111833 108226 104629 119038 115435 79327 101076 104682 93849 97463 46862 50476 32540 32542 104705 104750 97515 119249 137233 104731 137236 137237 133634 137225
64888 57683 50471 68516 21713 28937 32553 101154 101123 90264 93869 3618 61298 72121 18099 21727 86590 86614 86603 61318 64921 50471 54096 10822 14548 43248 46861 68511 93809 101104 104745 108372 119192 86637 86648 25334 97487 57682 57701 61341 97483 64923 68536 86601 79396 86574 82984 90190 82978 79397 97396 79373 82961 79378 79377 93792 82969 79394 97396 75744 90180 79375 83018 86575 79353 83001 68572 122803 68494 64927 50477 50478 50479 64916 61312 57712 54086 50494 46857 14496 10860 14462 18041 25337 25319 14437 7231 10838 3617 7219 10833 7220 7220 7231 3624 3629 3622 28842 14426 25336 25333 18032 18030 25241 21635 28845 25240 7220 10839 14427 10829 7218 3609 3616 7214 0 3612 86564 82997 7215 10825 14430 18038 28862 28838 25242 21632 54080 50471 54074 61284 57678 61298 61286 54077 57702 68542 64909 75752 72143 93811 90199 93862 90258 90262 86645 122802 126405 54096 57704 54081 54075 57685 61290 68507 57688 68497 64892 61290 68497 64892 64904 68513 97414 97412 97415 101017 97413 97414 108314 104705 104708 108315 111952 108347 108335 111939 104734 104732 108373 104770 126406 122802 126406 93900 90293 104731 108347 108336 104733 104734 101132 10836 7231 21641 18032 36045 32438 28840 25237 39647 36041 115585 111977 108363 104759 111966 108362 97518 93914 97501 93899 101102 97500 108226 104619 101012 97415 111824 108221 72113 93862 97468 86635 90249 39648 43262 25326 25328 97491 97536 90301 112035 130019 97517 130022 130023 126420 130011
68500 61295 54083 72128 25325 32549 36165 104766 104735 93876 97481 7230 64910 75733 21711 25339 90202 90226 90215 64930 68533 54083 57708 14434 18160 46860 50473 72123 97421 104716 108357 111984 122804 90249 90260 28946 101099 61294 61313 64953 101095 68535 72148 90213 83008 90186 86596 93802 86590 83009 101008 82985 86573 82990 82989 97404 86581 83006 101008 79356 93792 82987 86630 90187 82965 86613 72184 126415 72106 68539 54089 54090 54091 68528 64924 61324 57698 54106 50469 18108 14472 18074 21653 28949 28931 18049 10843 14450 7229 10831 14445 10832 10832 10843 7236 7241 7234 32454 18038 28948 28945 21644 21642 28853 25247 32457 28852 10832 14451 18039 14441 10830 7221 7228 3602 3612 0 90176 86609 10827 14437 18042 21650 32474 32450 28854 25244 57692 54083 57686 64896 61290 64910 64898 57689 61314 72154 68521 79364 75755 97423 93811 97474 93870 93874 90257 126414 130017 57708 61316 57693 57687 61297 64902 72119 61300 72109 68504 64902 72109 68504 68516 72125 101026 101024 101027 104629 101025 101026 111926 108317 108320 111927 115564 111959 111947 115551 108346 108344 111985 108382 130018 126414 130018 97512 93905 108343 111959 111948 108345 108346 104744 14448 10843 25253 21644 39657 36050 32452 28849 43259 39653 119197 115589 111975 108371 115578 111974 101130 97526 101113 97511 104714 101112 111838 108231 104624 101027 115436 111833 75725 97474 101080 90247 93861 43260 46874 28938 28940 101103 101148 93913 115647 133631 101129 133634 133635 130032 133623
50510 43305 36093 54138 101040 108264 111880 36230 36199 25340 28945 82952 25266 39702 97426 101054 21666 21690 21679 61386 64989 50539 50515 90160 93875 43316 39703 21623 28885 36180 39821 43448 54268 21713 21724 104661 32563 50524 54120 57760 32559 64991 68604 21677 14472 14432 18060 14432 18054 14473 21638 14449 3603 14454 14453 18034 10827 14470 21638 10820 10822 14451 18094 7217 7211 18077 68640 57879 54116 61346 50545 50546 50547 61335 57731 57780 54154 43306 46925 93823 90187 93789 97379 104664 104646 93775 86558 90165 82955 86557 90171 86558 86558 86558 82951 82942 82949 108180 93764 104663 104660 97370 97368 104579 100973 108183 104578 86558 90177 93765 90167 86556 82955 82954 93778 86564 90176 0 18073 79349 75739 72134 75742 64948 57726 61328 64932 46922 43313 46916 46906 50520 50510 46908 39699 43324 18022 21655 18030 14421 28887 25275 28938 25334 25338 21721 57878 61481 46908 43305 32483 39697 36088 39693 36088 28876 32479 36080 32478 39685 36080 28872 32481 32490 32488 32491 36093 32489 32490 43390 39781 39784 43391 47028 43423 43411 47015 39810 39808 43449 39846 61482 57878 61482 28976 25369 39807 43423 43412 39809 39810 36208 82945 79340 72141 68532 57733 54126 64930 61327 54129 50523 50661 47053 43439 39835 47042 43438 32594 28990 32577 28975 36178 32576 43302 39695 36088 32491 46900 43297 25225 28938 32544 21711 25325 46916 50530 104653 104655 32567 32612 25377 47111 65095 32593 65098 65099 61496 65087
46943 39738 32526 50571 97473 104697 108313 18157 18126 7267 10872 79385 21699 36135 93859 97487 7246 3617 3606 57819 61422 46972 46948 86593 90308 39749 36136 18056 14465 18107 21748 25375 36195 3640 3651 101094 14490 46957 50553 54193 14486 61424 65037 3604 3605 18083 7225 21699 7229 3600 28905 3624 14470 3619 3624 25301 14478 3603 28905 7253 21689 3622 7221 18084 10862 3627 65073 39806 50549 57779 46978 46979 46980 57768 54164 54213 50587 39739 43358 90256 86620 90222 93812 101097 101079 90208 82991 86598 79388 82990 86604 82991 82991 82991 79384 79375 79382 104613 90197 101096 101093 93803 93801 101012 97406 104616 101011 82991 86610 90198 86600 82989 79388 79387 90211 82997 86609 18073 0 75782 72172 68567 72175 61381 54159 57761 61365 43355 39746 43349 43339 46953 46943 43341 36132 39757 14455 18088 14463 10854 14467 10855 10865 7261 7265 3648 39805 43408 43341 39738 28916 36130 32521 36126 32521 25309 28912 32513 28911 36118 32513 25305 28914 18070 18068 18071 21673 18069 18070 25317 21708 21711 25318 28955 25350 25338 28942 21737 21735 25376 21773 43409 39805 43409 10903 7296 21734 25350 25339 21736 21737 18135 79378 75773 68574 64965 54166 50559 61363 57760 50562 46956 32588 28980 25366 21762 28969 25365 14521 10917 14504 10902 18105 14503 28882 25275 18081 14475 32480 28877 21658 10865 14471 3638 7252 43349 46963 101086 101088 14494 14539 7304 29038 47022 14520 47025 47026 43423 47014
57673 50468 43256 61301 21698 28922 32538 93939 93908 83049 86654 3603 54083 64906 18084 21712 79375 79399 79388 54103 57706 43256 46881 10811 14533 36033 39646 61296 86594 93889 97530 101157 111977 79422 79433 25319 90272 50467 50486 54126 90268 57708 61321 79386 72181 79359 75769 82975 75763 72182 90181 72158 75746 72163 72162 86577 75754 72179 90181 68529 82965 72160 75803 79360 72138 75786 61357 115588 61279 57712 43262 43263 43264 57701 54097 50497 46871 43279 39642 14481 10845 14447 18030 25322 25304 14426 7216 10823 3606 7208 10822 7209 7209 7216 3609 3614 3607 28831 14415 25321 25318 18021 18019 25230 21624 28834 25229 7209 10828 14416 10818 7207 3606 3605 14429 7215 10827 79349 75782 0 3610 7215 10823 21647 21623 18027 14417 46865 43256 46859 54069 50463 54083 54071 46862 50487 61327 57694 68537 64928 86596 82984 86647 83043 83047 79430 115587 119190 46881 50489 46866 46860 50470 54075 61292 50473 61282 57677 54075 61282 57677 57689 61298 90199 90197 90200 93802 90198 90199 101099 97490 97493 101100 104737 101132 101120 104724 97519 97517 101158 97555 119191 115587 119191 86685 83078 97516 101132 101121 97518 97519 93917 10816 7211 14426 10817 28830 25223 21625 18022 32432 28826 108370 104762 101148 97544 104751 101147 90303 86699 90286 86684 93887 90285 101011 97404 93797 90200 104609 101006 64898 86647 90253 79420 83034 32433 36047 25311 25313 90276 90321 83086 104820 122804 90302 122807 122808 119205 122796
54063 46858 39646 57691 25301 32525 36141 90329 90298 79439 83044 7213 50473 61296 21687 25315 75765 75789 75778 50493 54096 39646 43271 14421 18136 32423 36036 57686 82984 90279 93920 97547 108367 75812 75823 28922 86662 46857 46876 50516 86658 54098 57711 75776 68571 75749 72159 79365 72153 68572 86571 68548 72136 68553 68552 82967 72144 68569 86571 64919 79355 68550 72193 75750 68528 72176 57747 111978 57669 54102 39652 39653 39654 54091 50487 46887 43261 39669 36032 18084 14448 18050 21640 28925 28907 18036 10819 14426 7216 10818 14432 10819 10819 10819 7212 7203 7210 32441 18025 28924 28921 21631 21629 28840 25234 32444 28839 10819 14438 18026 14428 10817 7216 7215 18039 10825 14437 75739 72172 3610 0 3605 7213 18037 18013 14417 10807 43255 39646 43249 50459 46853 50473 50461 43252 46877 57717 54084 64927 61318 82986 79374 83037 79433 79437 75820 111977 115580 43271 46879 43256 43250 46860 50465 57682 46863 57672 54067 50465 57672 54067 54079 57688 86589 86587 86590 90192 86588 86589 97489 93880 93883 97490 101127 97522 97510 101114 93909 93907 97548 93945 115581 111977 115581 83075 79468 93906 97522 97511 93908 93909 90307 7206 3601 10816 7207 25220 21613 18015 14412 28822 25216 104760 101152 97538 93934 101141 97537 86693 83089 86676 83074 90277 86675 97401 93794 90187 86590 100999 97396 61288 83037 86643 75810 79424 28823 32437 28914 28916 86666 86711 79476 101210 119194 86692 119197 119198 115595 119186
50458 43253 36041 54086 28906 36130 39746 86724 86693 75834 79439 10818 46868 57691 25292 28920 72160 72184 72173 46888 50491 36041 39666 18026 21741 28818 32431 54081 79379 86674 90315 93942 104762 72207 72218 32527 83057 43252 43271 46911 83053 50493 54106 72171 64966 72144 68554 75760 68548 64967 82966 64943 68531 64948 64947 79362 68539 64964 82966 61314 75750 64945 68588 72145 64923 68571 54142 108373 54064 50497 36047 36048 36049 50486 46882 43282 39656 36064 32427 21689 18053 21655 25245 32530 32512 21641 14424 18031 10821 14423 18037 14424 14424 14424 10817 10808 10815 36046 21630 32529 32526 25236 25234 32445 28839 36049 32444 14424 18043 21631 18033 14422 10821 10820 21644 14430 18042 72134 68567 7215 3605 0 3608 14432 14408 10812 7202 39650 36041 39644 46854 43248 46868 46856 39647 43272 54112 50479 61322 57713 79381 75769 79432 75828 75832 72215 108372 111975 39666 43274 39651 39645 43255 46860 54077 43258 54067 50462 46860 54067 50462 50474 54083 82984 82982 82985 86587 82983 82984 93884 90275 90278 93885 97522 93917 93905 97509 90304 90302 93943 90340 111976 108372 111976 79470 75863 90301 93917 93906 90303 90304 86702 10811 7206 7211 3602 21615 18008 14410 10807 25217 21611 101155 97547 93933 90329 97536 93932 83088 79484 83071 79469 86672 83070 93796 90189 86582 82985 97394 93791 57683 79432 83038 72205 75819 25218 28832 32519 32521 83061 83106 75871 97605 115589 83087 115592 115593 111990 115581
54066 46861 39649 57694 32514 39738 43354 90332 90301 79442 83047 14426 50476 61299 28900 32528 75768 75792 75781 50496 54099 39649 43274 21634 25349 32426 36039 57689 82987 90282 93923 97550 108370 75815 75826 36135 86665 46860 46879 50519 86661 54101 57714 75779 68574 75752 72162 79368 72156 68575 86574 68551 72139 68556 68555 82970 72147 68572 86574 64922 79358 68553 72196 75753 68531 72179 57750 111981 57672 54105 39655 39656 39657 54094 50490 46890 43264 39672 36035 25297 21661 25263 28853 36138 36120 25249 18032 21639 14429 18031 21645 18032 18032 18032 14425 14416 14423 39654 25238 36137 36134 28844 28842 36053 32447 39657 36052 18032 21651 25239 21641 18030 14429 14428 25252 18038 21650 75742 72175 10823 7213 3608 0 18040 18016 14420 10810 43258 39649 43252 50462 46856 50476 50464 43255 46880 57720 54087 64930 61321 82989 79377 83040 79436 79440 75823 111980 115583 43274 46882 43259 43253 46863 50468 57685 46866 57675 54070 50468 57675 54070 54082 57691 86592 86590 86593 90195 86591 86592 97492 93883 93886 97493 101130 97525 97513 101117 93912 93910 97551 93948 115584 111980 115584 83078 79471 93909 97525 97514 93911 93912 90310 14419 10814 10819 7210 25223 21616 18018 14415 28825 25219 104763 101155 97541 93937 101144 97540 86696 83092 86679 83077 90280 86678 97404 93797 90190 86593 101002 97399 61291 83040 86646 75813 79427 28826 32440 36127 36129 86669 86714 79479 101213 119197 86695 119200 119201 115598 119189
43272 36067 28855 46900 43338 50562 54178 79538 79507 68648 72253 25250 39682 50505 39724 43352 64974 64998 64987 39702 43305 28855 32480 32458 36173 21632 25245 46895 72193 79488 83129 86756 97576 65021 65032 46959 75871 36066 36085 39725 75867 43307 46920 64985 57780 64958 61368 68574 61362 57781 75780 57757 61345 57762 57761 72176 61353 57778 75780 54128 68564 57759 61402 64959 57737 61385 46956 101187 46878 43311 28861 28862 28863 43300 39696 36096 32470 28878 25241 36121 32485 36087 39677 46962 46944 36073 28856 32463 25253 28855 32469 28856 28856 28856 25249 25240 25247 50478 36062 46961 46958 39668 39666 46877 43271 50481 46876 28856 32475 36063 32465 28854 25253 25252 36076 28862 32474 64948 61381 21647 18037 14432 18040 0 7222 3620 7230 32464 28855 32458 39668 36062 39682 39670 32461 36086 46926 43293 54136 50527 72195 68583 72246 68642 68646 65029 101186 104789 32480 36088 32465 32459 36069 39674 46891 36072 46881 43276 39674 46881 43276 43288 46897 75798 75796 75799 79401 75797 75798 86698 83089 83092 86699 90336 86731 86719 90323 83118 83116 86757 83154 104790 101186 104790 72284 68677 83115 86731 86720 83117 83118 79516 25243 21638 14439 10830 14429 10822 14426 10823 18031 14425 93969 90361 86747 83143 90350 86746 75902 72298 75885 72283 79486 75884 86610 83003 79396 75799 90208 86605 50497 72246 75852 65019 68633 18032 21646 46951 46953 75875 75920 68685 90419 108403 75901 108406 108407 104804 108395
36050 28845 21633 39678 43314 50538 54154 72316 72285 61426 65031 25226 32460 43283 39700 43328 57752 57776 57765 32480 36083 21633 25258 32434 36149 14410 18023 39673 64971 72266 75907 79534 90354 57799 57810 46935 68649 28844 28863 32503 68645 36085 39698 57763 50558 57736 54146 61352 54140 50559 68558 50535 54123 50540 50539 64954 54131 50556 68558 46906 61342 50537 54180 57737 50515 54163 39734 93965 39656 36089 21639 21640 21641 36078 32474 28874 25248 21656 18019 36097 32461 36063 39653 46938 46920 36049 28832 32439 25229 28831 32445 28832 28832 28832 25225 25216 25223 50454 36038 46937 46934 39644 39642 46853 43247 50457 46852 28832 32451 36039 32441 28830 25229 25228 36052 28838 32450 57726 54159 21623 18013 14408 18016 7222 0 3602 7206 25242 21633 25236 32446 28840 32460 32448 25239 28864 39704 36071 46914 43305 64973 61361 65024 61420 61424 57807 93964 97567 25258 28866 25243 25237 28847 32452 39669 28850 39659 36054 32452 39659 36054 36066 39675 68576 68574 68577 72179 68575 68576 79476 75867 75870 79477 83114 79509 79497 83101 75896 75894 79535 75932 97568 93964 97568 65062 61455 75893 79509 79498 75895 75896 72294 25219 21614 14415 10806 7207 3600 7204 3601 10809 7203 86747 83139 79525 75921 83128 79524 68680 65076 68663 65061 72264 68662 79388 75781 72174 68577 82986 79383 43275 65024 68630 57797 61411 10810 14424 46927 46929 68653 68698 61463 83197 101181 68679 101184 101185 97582 101173
39652 32447 25235 43280 39718 46942 50558 75918 75887 65028 68633 21630 36062 46885 36104 39732 61354 61378 61367 36082 39685 25235 28860 28838 32553 18012 21625 43275 68573 75868 79509 83136 93956 61401 61412 43339 72251 32446 32465 36105 72247 39687 43300 61365 54160 61338 57748 64954 57742 54161 72160 54137 57725 54142 54141 68556 57733 54158 72160 50508 64944 54139 57782 61339 54117 57765 43336 97567 43258 39691 25241 25242 25243 39680 36076 32476 28850 25258 21621 32501 28865 32467 36057 43342 43324 32453 25236 28843 21633 25235 28849 25236 25236 25236 21629 21620 21627 46858 32442 43341 43338 36048 36046 43257 39651 46861 43256 25236 28855 32443 28845 25234 21633 21632 32456 25242 28854 61328 57761 18027 14417 10812 14420 3620 3602 0 3610 28844 25235 28838 36048 32442 36062 36050 28841 32466 43306 39673 50516 46907 68575 64963 68626 65022 65026 61409 97566 101169 28860 32468 28845 28839 32449 36054 43271 32452 43261 39656 36054 43261 39656 39668 43277 72178 72176 72179 75781 72177 72178 83078 79469 79472 83079 86716 83111 83099 86703 79498 79496 83137 79534 101170 97566 101170 68664 65057 79495 83111 83100 79497 79498 75896 21623 18018 10819 7210 10809 7202 10806 7203 14411 10805 90349 86741 83127 79523 86730 83126 72282 68678 72265 68663 75866 72264 82990 79383 75776 72179 86588 82985 46877 68626 72232 61399 65013 14412 18026 43331 43333 72255 72300 65065 86799 104783 72281 104786 104787 101184 104775
43256 36051 28839 46884 36108 43332 46948 79522 79491 68632 72237 18020 39666 50489 32494 36122 64958 64982 64971 39686 43289 28839 32464 25228 28943 21616 25229 46879 72177 79472 83113 86740 97560 65005 65016 39729 75855 36050 36069 39709 75851 43291 46904 64969 57764 64942 61352 68558 61346 57765 75764 57741 61329 57746 57745 72160 61337 57762 75764 54112 68548 57743 61386 64943 57721 61369 46940 101171 46862 43295 28845 28846 28847 43284 39680 36080 32454 28862 25225 28891 25255 28857 32447 39732 39714 28843 21626 25233 18023 21625 25239 21626 21626 21626 18019 18010 18017 43248 28832 39731 39728 32438 32436 39647 36041 43251 39646 21626 25245 28833 25235 21624 18023 18022 28846 21632 25244 64932 61365 14417 10807 7202 10810 7230 7206 3610 0 32448 28839 32442 39652 36046 39666 39654 32445 36070 46910 43277 54120 50511 72179 68567 72230 68626 68630 65013 101170 104773 32464 36072 32449 32443 36053 39658 46875 36056 46865 43260 39658 46865 43260 43272 46881 75782 75780 75783 79385 75781 75782 86682 83073 83076 86683 90320 86715 86703 90307 83102 83100 86741 83138 104774 101170 104774 72268 68661 83099 86715 86704 83101 83102 79500 18013 14408 7209 3600 14413 10806 7208 3605 18015 14409 93953 90345 86731 83127 90334 86730 75886 72282 75869 72267 79470 75868 86594 82987 79380 75783 90192 86589 50481 72230 75836 65003 68617 18016 21630 39721 39723 75859 75904 68669 90403 108387 75885 108390 108391 104788 108379
21644 18041 10829 25272 68556 75780 79396 61512 61481 50622 54227 50468 21656 32479 64942 68570 46948 46972 46961 28902 32505 18055 21680 57676 61391 10832 7219 28869 54167 61462 65103 68730 79550 46995 47006 72177 57845 10820 25285 28925 57841 32507 36120 46959 39754 46932 43342 50548 43336 39755 57754 39731 43319 39736 39735 54150 43327 39752 57754 36102 50538 39733 43376 46933 39711 43359 36156 83161 25250 32511 18061 18062 18063 32500 28896 25296 21670 18042 14441 61339 57703 61305 64895 72180 72162 61291 54074 57681 50471 54073 57687 54074 54074 54074 50467 50458 50465 75696 61280 72179 72176 64886 64884 72095 68489 75699 72094 54074 57693 61281 57683 54072 50471 50470 61294 54080 57692 46922 43355 46865 43255 39650 43258 32464 25242 28844 32448 0 3609 7212 18040 10816 14436 21644 14435 18060 28900 25267 36110 32501 54169 50557 54220 50616 50620 47003 83160 86763 21644 25252 14439 14433 18043 21648 28865 18046 28855 25250 21648 28855 25250 25262 28871 57772 57770 57773 61375 57771 57772 68672 65063 65066 68673 72310 68705 68693 72297 65092 65090 68731 65128 86764 83160 86764 54258 50651 65089 68705 68694 65091 65092 61490 50461 46856 39657 36048 25249 21642 32446 28843 21645 18039 75943 72335 68721 65117 72324 68720 57876 54272 57859 54257 61460 57858 68584 64977 61370 57773 72182 68579 32471 54220 57826 46993 50607 14432 18046 72169 72171 57849 57894 50659 72393 90377 57875 90380 90381 86778 90369
18035 14432 7220 21663 64947 72171 75787 57903 57872 47013 50618 46859 18047 28870 61333 64961 43339 43363 43352 25293 28896 14446 18071 54067 57782 7223 3610 25260 50558 57853 61494 65121 75941 43386 43397 68568 54236 7211 21676 25316 54232 28898 32511 43350 36145 43323 39733 46939 39727 36146 54145 36122 39710 36127 36126 50541 39718 36143 54145 32493 46929 36124 39767 43324 36102 39750 32547 79552 21641 28902 14452 14453 14454 28891 25287 21687 18061 14433 10832 57730 54094 57696 61286 68571 68553 57682 50465 54072 46862 50464 54078 50465 50465 50465 46858 46849 46856 72087 57671 68570 68567 61277 61275 68486 64880 72090 68485 50465 54084 57672 54074 50463 46862 46861 57685 50471 54083 43313 39746 43256 39646 36041 39649 28855 21633 25235 28839 3609 0 3603 14431 7207 10827 18035 10826 14451 25291 21658 32501 28892 50560 46948 50611 47007 47011 43394 79551 83154 18035 21643 10830 10824 14434 18039 25256 14437 25246 21641 18039 25246 21641 21653 25262 54163 54161 54164 57766 54162 54163 65063 61454 61457 65064 68701 65096 65084 68688 61483 61481 65122 61519 83155 79551 83155 50649 47042 61480 65096 65085 61482 61483 57881 46852 43247 36048 32439 21640 18033 28837 25234 18036 14430 72334 68726 65112 61508 68715 65111 54267 50663 54250 50648 57851 54249 64975 61368 57761 54164 68573 64970 28862 50611 54217 43384 46998 10823 14437 68560 68562 54240 54285 47050 68784 86768 54266 86771 86772 83169 86760
14432 14429 10823 18060 68550 75774 79390 61506 61475 50616 54221 50462 21650 32473 64936 68564 46942 46966 46955 28896 32499 18049 21674 57670 61385 10826 7213 28863 54161 61456 65097 68724 79544 46989 47000 72171 57839 3608 25279 28919 57835 32501 36114 46953 39748 46926 43336 50542 43330 39749 57748 39725 43313 39730 39729 54144 43321 39746 57748 36096 50532 39727 43370 46927 39705 43353 36150 83155 18038 32505 18055 18056 18057 32494 28890 25290 21664 18036 14435 61333 57697 61299 64889 72174 72156 61285 54068 57675 50465 54067 57681 54068 54068 54068 50461 50452 50459 75690 61274 72173 72170 64880 64878 72089 68483 75693 72088 54068 57687 61275 57677 54066 50465 50464 61288 54074 57686 46916 43349 46859 43249 39644 43252 32458 25236 28838 32442 7212 3603 0 10828 3604 7224 18032 14429 18054 28894 25261 36104 32495 54163 50551 54214 50610 50614 46997 83154 86757 21638 25246 14433 14427 18037 21642 28859 18040 28849 25244 21642 28849 25244 25256 28865 57766 57764 57767 61369 57765 57766 68666 65057 65060 68667 72304 68699 68687 72291 65086 65084 68725 65122 86758 83154 86758 54252 50645 65083 68699 68688 65085 65086 61484 50455 46850 39651 36042 25243 21636 32440 28837 21639 18033 75937 72329 68715 65111 72318 68714 57870 54266 57853 54251 61454 57852 68578 64971 61364 57767 72176 68573 32465 54214 57820 46987 50601 14426 18040 72163 72165 57843 57888 50653 72387 90371 57869 90374 90375 86772 90363
3604 3601 10813 7232 75760 82984 86600 61496 61465 50606 54211 57672 21640 32463 72146 75774 46932 46956 46945 36106 39709 25259 25235 64880 68595 18036 14423 28853 54151 61446 65087 68714 79534 46979 46990 79381 57829 14436 28840 32480 57825 39711 43324 46943 39738 46916 43326 50532 43320 39739 57738 39715 43303 39720 39719 54134 43311 39736 57738 36086 50522 39717 43360 46917 39695 43343 43360 83145 7210 36066 25265 25266 25267 36055 32451 32500 28874 18026 21645 68543 64907 68509 72099 79384 79366 68495 61278 64885 57675 61277 64891 61278 61278 61278 57671 57662 57669 82900 68484 79383 79380 72090 72088 79299 75693 82903 79298 61278 64897 68485 64887 61276 57675 57674 68498 61284 64896 46906 43339 54069 50459 46854 50462 39668 32446 36048 39652 18040 14431 10828 0 7224 3604 7204 7207 10832 28884 25251 36094 32485 54153 50541 54204 50600 50604 46987 83144 86747 21628 25236 14423 14417 18027 21632 28849 18030 28839 25234 21632 28839 25234 25246 28855 57756 57754 57757 61359 57755 57756 68656 65047 65050 68657 72294 68689 68677 72281 65076 65074 68715 65112 86748 83144 86748 54242 50635 65073 68689 68678 65075 65076 61474 57665 54060 46861 43252 32453 28846 39650 36047 28849 25243 75927 72319 68705 65101 72308 68704 57860 54256 57843 54241 61444 57842 68568 64961 61354 57757 72166 68563 32455 54204 57810 46977 50591 21636 25250 79373 79375 57833 57878 50643 72377 90361 57859 90364 90365 86762 90353
10828 10825 14427 14456 72154 79378 82994 65110 65079 54220 57825 54066 25254 36077 68540 72168 50546 50570 50559 32500 36103 21653 25278 61274 64989 14430 10817 32467 57765 65060 68701 72328 83148 50593 50604 75775 61443 7212 28883 32523 61439 36105 39718 50557 43352 50530 46940 54146 46934 43353 61352 43329 46917 43334 43333 57748 46925 43350 61352 39700 54136 43331 46974 50531 43309 46957 39754 86759 14434 36109 21659 21660 21661 36098 32494 28894 25268 21640 18039 64937 61301 64903 68493 75778 75760 64889 57672 61279 54069 57671 61285 57672 57672 57672 54065 54056 54063 79294 64878 75777 75774 68484 68482 75693 72087 79297 75692 57672 61291 64879 61281 57670 54069 54068 64892 57678 61290 50520 46953 50463 46853 43248 46856 36062 28840 32442 36046 10816 7207 3604 7224 0 3620 14428 14431 18056 32498 28865 39708 36099 57767 54155 57818 54214 54218 50601 86758 90361 25242 28850 18037 18031 21641 25246 32463 21644 32453 28848 25246 32453 28848 28860 32469 61370 61368 61371 64973 61369 61370 72270 68661 68664 72271 75908 72303 72291 75895 68690 68688 72329 68726 90362 86758 90362 57856 54249 68687 72303 72292 68689 68690 65088 54059 50454 43255 39646 28847 25240 36044 32441 25243 21637 79541 75933 72319 68715 75922 72318 61474 57870 61457 57855 65058 61456 72182 68575 64968 61371 75780 72177 36069 57818 61424 50591 54205 18030 21644 75767 75769 61447 61492 54257 75991 93975 61473 93978 93979 90376 93967
7208 7205 14417 10836 75774 82998 86614 65100 65069 54210 57815 57686 25244 36067 72160 75788 50536 50560 50549 36120 39723 25273 28839 64894 68609 18050 14437 32457 57755 65050 68691 72318 83138 50583 50594 79395 61433 10832 32444 36084 61429 39725 43338 50547 43342 50520 46930 54136 46924 43343 61342 43319 46907 43324 43323 57738 46915 43340 61342 39690 54126 43321 46964 50521 43299 46947 43374 86749 10814 39670 25279 25280 25281 39659 36055 32514 28888 21630 21659 68557 64921 68523 72113 79398 79380 68509 61292 64899 57689 61291 64905 61292 61292 61292 57685 57676 57683 82914 68498 79397 79394 72104 72102 79313 75707 82917 79312 61292 64911 68499 64901 61290 57689 57688 68512 61298 64910 50510 46943 54083 50473 46868 50476 39682 32460 36062 39666 14436 10827 7224 3604 3620 0 10808 10811 14436 32488 28855 39698 36089 57757 54145 57808 54204 54208 50591 86748 90351 25232 28840 18027 18021 21631 25236 32453 21634 32443 28838 25236 32443 28838 28850 32459 61360 61358 61361 64963 61359 61360 72260 68651 68654 72261 75898 72293 72281 75885 68680 68678 72319 68716 90352 86748 90352 57846 54239 68677 72293 72282 68679 68680 65078 57679 54074 46875 43266 32467 28860 39664 36061 28863 25257 79531 75923 72309 68705 75912 72308 61464 57860 61447 57845 65048 61446 72172 68565 64958 61361 75770 72167 36059 57808 61414 50581 54195 21650 25264 79387 79389 61437 61482 54247 75981 93965 61463 93968 93969 90366 93957
10808 3603 10815 14436 75762 82986 86602 61498 61467 50608 54213 57674 21642 32465 72148 75776 46934 46958 46947 36108 39711 25261 25237 64882 68597 18038 14425 28855 54153 61448 65089 68716 79536 46981 46992 79383 57831 21640 28842 32482 57827 39713 43326 46945 39740 46918 43328 50534 43322 39741 57740 39717 43305 39722 39721 54136 43313 39738 57740 36088 50524 39719 43362 46919 39697 43345 43362 83147 14414 36068 25267 25268 25269 36057 32453 32502 28876 18028 21647 68545 64909 68511 72101 79386 79368 68497 61280 64887 57677 61279 64893 61280 61280 61280 57673 57664 57671 82902 68486 79385 79382 72092 72090 79301 75695 82905 79300 61280 64899 68487 64889 61278 57677 57676 68500 61286 64898 46908 43341 54071 50461 46856 50464 39670 32448 36050 39654 21644 18035 18032 7204 14428 10808 0 7209 10834 28886 25253 36096 32487 54155 50543 54206 50602 50606 46989 83146 86749 21630 25238 14425 14419 18029 21634 28851 18032 28841 25236 21634 28841 25236 25248 28857 57758 57756 57759 61361 57757 57758 68658 65049 65052 68659 72296 68691 68679 72283 65078 65076 68717 65114 86750 83146 86750 54244 50637 65075 68691 68680 65077 65078 61476 57667 54062 46863 43254 32455 28848 39652 36049 28851 25245 75929 72321 68707 65103 72310 68706 57862 54258 57845 54243 61446 57844 68570 64963 61356 57759 72168 68565 32457 54206 57812 46979 50593 21638 25252 79375 79377 57835 57880 50645 72379 90363 57861 90366 90367 86764 90355
10811 3606 3606 14439 68553 75777 79393 54289 54258 43399 47004 50465 14433 25256 64939 68567 39725 39749 39738 28899 32502 18052 18028 57673 61388 10829 7216 21646 46944 54239 57880 61507 72327 39772 39783 72174 50622 18037 21633 25273 50618 32504 36117 39736 32531 39709 36119 43325 36113 32532 50531 32508 36096 32513 32512 46927 36104 32529 50531 28879 43315 32510 36153 39710 32488 36136 36153 75938 14417 28859 18058 18059 18060 28848 25244 25293 21667 10819 14438 61336 57700 61302 64892 72177 72159 61288 54071 57678 50468 54070 57684 54071 54071 54071 50464 50455 50462 75693 61277 72176 72173 64883 64881 72092 68486 75696 72091 54071 57690 61278 57680 54069 50468 50467 61291 54077 57689 39699 36132 46862 43252 39647 43255 32461 25239 28841 32445 14435 10826 14429 7207 14431 10811 7209 0 3625 21677 18044 28887 25278 46946 43334 46997 43393 43397 39780 75937 79540 14421 18029 7216 7210 10820 14425 21642 10823 21632 18027 14425 21632 18027 18039 21648 50549 50547 50550 54152 50548 50549 61449 57840 57843 61450 65087 61482 61470 65074 57869 57867 61508 57905 79541 75937 79541 47035 43428 57866 61482 61471 57868 57869 54267 50458 46853 39654 36045 25246 21639 32443 28840 21642 18036 68720 65112 61498 57894 65101 61497 50653 47049 50636 47034 54237 50635 61361 57754 54147 50550 64959 61356 25248 46997 50603 39770 43384 14429 18043 72166 72168 50626 50671 43436 65170 83154 50652 83157 83158 79555 83146
14436 7231 7231 18064 72178 79402 83018 57914 57883 47024 50629 54090 18058 28881 68564 72192 43350 43374 43363 32524 36127 21677 21653 61298 65013 14454 10841 25271 50569 57864 61505 65132 75952 43397 43408 75799 54247 21662 25258 28898 54243 36129 39742 43361 36156 43334 39744 46950 39738 36157 54156 36133 39721 36138 36137 50552 39729 36154 54156 32504 46940 36135 39778 43335 36113 39761 39778 79563 18042 32484 21683 21684 21685 32473 28869 28918 25292 14444 18063 64961 61325 64927 68517 75802 75784 64913 57696 61303 54093 57695 61309 57696 57696 57696 54089 54080 54087 79318 64902 75801 75798 68508 68506 75717 72111 79321 75716 57696 61315 64903 61305 57694 54093 54092 64916 57702 61314 43324 39757 50487 46877 43272 46880 36086 28864 32466 36070 18060 14451 18054 10832 18056 14436 10834 3625 0 25302 21669 32512 28903 50571 46959 50622 47018 47022 43405 79562 83165 18046 21654 10841 10835 14445 18050 25267 14448 25257 21652 18050 25257 21652 21664 25273 54174 54172 54175 57777 54173 54174 65074 61465 61468 65075 68712 65107 65095 68699 61494 61492 65133 61530 83166 79562 83166 50660 47053 61491 65107 65096 61493 61494 57892 54083 50478 43279 39670 28871 25264 36068 32465 25267 21661 72345 68737 65123 61519 68726 65122 54278 50674 54261 50659 57862 54260 64986 61379 57772 54175 68584 64981 28873 50622 54228 43395 47009 18054 21668 75791 75793 54251 54296 47061 68795 86779 54277 86782 86783 83180 86771
32488 25283 18071 36116 83018 90242 93858 32612 32581 21722 25327 64930 7244 21680 79404 83032 18048 18072 18061 43364 46967 32517 32493 72138 75853 25294 21681 3601 25267 32562 36203 39830 50650 18095 18106 86639 28945 32502 36098 39738 28941 46969 50582 18059 10854 18032 14442 21648 14436 10855 28854 10831 14419 10836 10835 25250 14427 10852 28854 7202 21638 10833 14476 18033 10811 14459 50618 54261 36094 43324 32523 32524 32525 43313 39709 39758 36132 25284 28903 75801 72165 75767 79357 86642 86624 75753 68536 72143 64933 68535 72149 68536 68536 68536 64929 64920 64927 90158 75742 86641 86638 79348 79346 86557 82951 90161 86556 68536 72155 75743 72145 68534 64933 64932 75756 68542 72154 18022 14455 61327 57717 54112 57720 46926 39704 43306 46910 28900 25291 28894 28884 32498 32488 28886 21677 25302 0 3633 7210 3601 25269 21657 25320 21716 21720 18103 54260 57863 28886 25283 14461 21675 18066 21671 18066 10854 14457 18058 14456 21663 18058 10850 14459 28872 28870 28873 32475 28871 28872 39772 36163 36166 39773 43410 39805 39793 43397 36192 36190 39831 36228 57864 54260 57864 25358 21751 36189 39805 39794 36191 36192 32590 64923 61318 54119 50510 39711 36104 46908 43305 36107 32501 47043 43435 39821 36217 43424 39820 28976 25372 28959 25357 32560 28958 39684 36077 32470 28873 43282 39679 7203 25320 28926 18093 21707 28894 32508 86631 86633 28949 28994 21759 43493 61477 28975 61480 61481 57878 61469
28855 21650 14438 32483 79385 86609 90225 36245 36214 25355 28960 61297 3611 18047 75771 79399 21681 21705 21694 39731 43334 28884 28860 68505 72220 21661 18048 3602 28900 36195 39836 43463 54283 21728 21739 83006 32578 28869 32465 36105 32574 43336 46949 21692 14487 21665 18075 25281 18069 14488 32487 14464 18052 14469 14468 28883 18060 14485 32487 10835 25271 14466 18109 21666 14444 18092 46985 57894 32461 39691 28890 28891 28892 39680 36076 36125 32499 21651 25270 72168 68532 72134 75724 83009 82991 72120 64903 68510 61300 64902 68516 64903 64903 64903 61296 61287 61294 86525 72109 83008 83005 75715 75713 82924 79318 86528 82923 64903 68522 72110 68512 64901 61300 61299 72123 64909 68521 21655 18088 57694 54084 50479 54087 43293 36071 39673 43277 25267 21658 25261 25251 28865 28855 25253 18044 21669 3633 0 10843 7234 28902 25290 28953 25349 25353 21736 57893 61496 25253 21650 10828 18042 14433 18038 14433 7221 10824 14425 10823 18030 14425 7217 10826 32505 32503 32506 36108 32504 32505 43405 39796 39799 43406 47043 43438 43426 47030 39825 39823 43464 39861 61497 57893 61497 28991 25384 39822 43438 43427 39824 39825 36223 61290 57685 50486 46877 36078 32471 43275 39672 32474 28868 50676 47068 43454 39850 47057 43453 32609 29005 32592 28990 36193 32591 43317 39710 36103 32506 46915 43312 7204 28953 32559 21726 25340 25261 28875 82998 83000 32582 32627 25392 47126 65110 32608 65113 65114 61511 65102
39698 32493 25281 43326 90228 97452 101068 32620 32589 21730 25335 72140 14454 28890 86614 90242 18056 18080 18069 50574 54177 39727 39703 79348 83063 32504 28891 10811 25275 32570 36211 39838 50658 18103 18114 93849 28953 39712 43308 46948 28949 54179 57792 18067 10862 18040 14450 21656 14444 10863 28862 10839 14427 10844 10843 25258 14435 10860 28862 7210 21646 10841 14484 18041 10819 14467 57828 54269 43304 50534 39733 39734 39735 50523 46919 46968 43342 32494 36113 83011 79375 82977 86567 93852 93834 82963 75746 79353 72143 75745 79359 75746 75746 75746 72139 72130 72137 97368 82952 93851 93848 86558 86556 93767 90161 97371 93766 75746 79365 82953 79355 75744 72143 72142 82966 75752 79364 18030 14463 68537 64927 61322 64930 54136 46914 50516 54120 36110 32501 36104 36094 39708 39698 36096 28887 32512 7210 10843 0 3609 25277 21665 25328 21724 21728 18111 54268 57871 36096 32493 21671 28885 25276 28881 25276 18064 21667 25268 21666 28873 25268 18060 21669 28880 28878 28881 32483 28879 28880 39780 36171 36174 39781 43418 39813 39801 43405 36200 36198 39839 36236 57872 54268 57872 25366 21759 36197 39813 39802 36199 36200 32598 72133 68528 61329 57720 46921 43314 54118 50515 43317 39711 47051 43443 39829 36225 43432 39828 28984 25380 28967 25365 32568 28966 39692 36085 32478 28881 43290 39687 14413 25328 28934 18101 21715 36104 39718 93841 93843 28957 29002 21767 43501 61485 28983 61488 61489 57886 61477
36089 28884 21672 39717 86619 93843 97459 29011 28980 18121 21726 68531 10845 25281 83005 86633 14447 14471 14460 46965 50568 36118 36094 75739 79454 28895 25282 7202 21666 28961 32602 36229 47049 14494 14505 90240 25344 36103 39699 43339 25340 50570 54183 14458 7253 14431 10841 18047 10835 7254 25253 7230 10818 7235 7234 21649 10826 7251 25253 3601 18037 7232 10875 14432 7210 10858 54219 50660 39695 46925 36124 36125 36126 46914 43310 43359 39733 28885 32504 79402 75766 79368 82958 90243 90225 79354 72137 75744 68534 72136 75750 72137 72137 72137 68530 68521 68528 93759 79343 90242 90239 82949 82947 90158 86552 93762 90157 72137 75756 79344 75746 72135 68534 68533 79357 72143 75755 14421 10854 64928 61318 57713 61321 50527 43305 46907 50511 32501 28892 32495 32485 36099 36089 32487 25278 28903 3601 7234 3609 0 21668 18056 21719 18115 18119 14502 50659 54262 32487 28884 18062 25276 21667 25272 21667 14455 18058 21659 18057 25264 21659 14451 18060 25271 25269 25272 28874 25270 25271 36171 32562 32565 36172 39809 36204 36192 39796 32591 32589 36230 32627 54263 50659 54263 21757 18150 32588 36204 36193 32590 32591 28989 68524 64919 57720 54111 43312 39705 50509 46906 39708 36102 43442 39834 36220 32616 39823 36219 25375 21771 25358 21756 28959 25357 36083 32476 28869 25272 39681 36078 10804 21719 25325 14492 18106 32495 36109 90232 90234 25348 25393 18158 39892 57876 25374 57879 57880 54277 57868
57757 50552 43340 61385 108287 115511 119127 25390 25359 14500 18105 90199 32513 46949 104673 108301 7221 10850 10861 68633 72236 57786 57762 97407 101122 50563 46950 28870 7222 25340 28981 32608 43428 10873 10884 111908 21723 57771 61367 65007 21719 72238 75851 10863 14461 28897 14444 32513 10833 14462 39719 14438 25284 14443 14442 36115 25292 14459 39719 18067 32503 14440 14490 28898 21676 18066 75887 47039 61363 68593 57792 57793 57794 68582 64978 65027 61401 50553 54172 101070 97434 101036 104626 111911 111893 101022 93805 97412 90202 93804 97418 93805 93805 93805 90198 90189 90196 115427 101011 111910 111907 104617 104615 111826 108220 115430 111825 93805 97424 101012 97414 93803 90202 90201 101025 93811 97423 28887 14467 86596 82986 79381 82989 72195 64973 68575 72179 54169 50560 54163 54153 57767 57757 54155 46946 50571 25269 28902 25277 21668 0 3612 18098 14494 14498 10881 47038 50641 54155 50552 39730 46944 43335 46940 43335 36123 39726 43327 39725 46932 43327 36119 39728 10827 10825 10828 14430 10826 10827 25236 28845 28944 32551 36188 32583 32571 36175 28970 28968 32609 29006 50642 47038 50642 18136 14529 28967 32583 32572 28969 28970 25368 90192 86587 79388 75779 64980 61373 72177 68574 61376 57770 39821 36213 32599 28995 36202 32598 21754 18150 21737 18135 25338 21736 21639 18032 14425 10828 25237 21634 32472 14438 18044 10893 14507 54163 57777 111900 111902 21727 21772 14559 36271 54255 21753 54258 54259 50656 54247
54145 46940 39728 57773 104675 111899 115515 21778 21747 10888 14493 86587 28901 43337 101061 104689 3609 7238 7249 65021 68624 54174 54150 93795 97510 46951 43338 25258 3610 21728 25369 28996 39816 7261 7272 108296 18111 54159 57755 61395 18107 68626 72239 7251 10849 25285 10832 28901 7221 10850 36107 10826 21672 10831 10830 32503 21680 10847 36107 14455 28891 10828 10878 25286 18064 14454 72275 43427 57751 64981 54180 54181 54182 64970 61366 61415 57789 46941 50560 97458 93822 97424 101014 108299 108281 97410 90193 93800 86590 90192 93806 90193 90193 90193 86586 86577 86584 111815 97399 108298 108295 101005 101003 108214 104608 111818 108213 90193 93812 97400 93802 90191 86590 86589 97413 90199 93811 25275 10855 82984 79374 75769 79377 68583 61361 64963 68567 50557 46948 50551 50541 54155 54145 50543 43334 46959 21657 25290 21665 18056 3612 0 14486 10882 10886 7269 43426 47029 50543 46940 36118 43332 39723 43328 39723 32511 36114 39715 36113 43320 39715 32507 36116 7215 7213 7216 10818 7214 7215 21624 25233 25332 28939 32576 28971 28959 32563 25358 25356 28997 25394 47030 43426 47030 14524 10917 25355 28971 28960 25357 25358 21756 86580 82975 75776 72167 61368 57761 68565 64962 57764 54158 36209 32601 28987 25383 32590 28986 18142 14538 18125 14523 21726 18124 18027 14420 10813 7216 21625 18022 28860 10826 14432 7281 10895 50551 54165 108288 108290 18115 18160 10947 32659 50643 18141 50646 50647 47044 50635
57808 50603 43391 61436 108338 115562 119178 21742 21711 10852 14457 90250 32564 47000 104724 108352 10877 7248 7259 68684 72287 57837 57813 97458 101173 50614 47001 28921 14424 21692 25333 28960 39780 7225 7236 111959 18075 57822 61418 65058 18071 72289 75902 7261 14470 28948 14500 32564 14489 14465 39770 14489 25335 14484 14489 36166 25343 14468 39770 18118 32554 14487 10888 28949 21727 14492 75938 43391 61414 68644 57843 57844 57845 68633 65029 65078 61452 50604 54223 101121 97485 101087 104677 111962 111944 101073 93856 97463 90253 93855 97469 93856 93856 93856 90249 90240 90247 115478 101062 111961 111958 104668 104666 111877 108271 115481 111876 93856 97475 101063 97465 93854 90253 90252 101076 93862 97474 28938 10865 86647 83037 79432 83040 72246 65024 68626 72230 54220 50611 54214 54204 57818 57808 54206 46997 50622 25320 28953 25328 21719 18098 14486 0 3604 10834 7217 43390 46993 54206 50603 39781 46995 43386 46991 43386 36174 39777 43378 39776 46983 43378 36170 39779 18026 18024 18027 18026 18025 18026 28832 25293 25296 28903 32540 28935 28923 32527 25322 25320 28961 25358 46994 43390 46994 14488 10881 25319 28935 28924 25321 25322 21720 90243 86638 79439 75830 65031 61424 72228 68625 61427 57821 36173 32565 28951 25347 32554 28950 18106 14502 18089 14487 21690 18088 25235 21628 14424 10818 28833 25230 32523 7208 10814 7291 10905 54214 57828 111951 111953 18079 18124 10957 32623 50607 18105 50610 50611 47008 50599
54204 46999 39787 57832 104734 111958 115574 18138 18107 7248 10853 86646 28960 43396 101120 104748 7273 3644 3655 65080 68683 54233 54209 93854 97569 47010 43397 25317 10820 18088 21729 25356 36176 3621 3632 108355 14471 54218 57814 61454 14467 68685 72298 3657 10866 25344 10896 28960 10885 10861 36166 10885 21731 10880 10885 32562 21739 10864 36166 14514 28950 10883 7284 25345 18123 10888 72334 39787 57810 65040 54239 54240 54241 65029 61425 61474 57848 47000 50619 97517 93881 97483 101073 108358 108340 97469 90252 93859 86649 90251 93865 90252 90252 90252 86645 86636 86643 111874 97458 108357 108354 101064 101062 108273 104667 111877 108272 90252 93871 97459 93861 90250 86649 86648 97472 90258 93870 25334 7261 83043 79433 75828 79436 68642 61420 65022 68626 50616 47007 50610 50600 54214 54204 50602 43393 47018 21716 25349 21724 18115 14494 10882 3604 0 7230 3613 39786 43389 50602 46999 36177 43391 39782 43387 39782 32570 36173 39774 36172 43379 39774 32566 36175 14422 14420 14423 14422 14421 14422 25228 21689 21692 25299 28936 25331 25319 28923 21718 21716 25357 21754 43390 39786 43390 10884 7277 21715 25331 25320 21717 21718 18116 86639 83034 75835 72226 61427 57820 68624 65021 57823 54217 32569 28961 25347 21743 28950 25346 14502 10898 14485 10883 18086 14484 21631 18024 10820 7214 25229 21626 28919 3604 7210 3687 7301 50610 54224 108347 108349 14475 14520 7353 29019 47003 14501 47006 47007 43404 46995
54208 47003 39791 57836 104738 111962 115578 18142 18111 7252 10857 86650 28964 43400 101124 104752 7277 3648 3659 65084 68687 54237 54213 93858 97573 47014 43401 25321 14496 18092 21733 25360 36180 3625 3636 108359 14475 54222 57818 61458 14471 68689 72302 3661 10870 25348 10900 28964 10889 10865 36170 10889 21735 10884 10889 32566 21743 10868 36170 14518 28954 10887 7288 25349 18127 10892 72338 39791 57814 65044 54243 54244 54245 65033 61429 61478 57852 47004 50623 97521 93885 97487 101077 108362 108344 97473 90256 93863 86653 90255 93869 90256 90256 90256 86649 86640 86647 111878 97462 108361 108358 101068 101066 108277 104671 111881 108276 90256 93875 97463 93865 90254 86653 86652 97476 90262 93874 25338 7265 83047 79437 75832 79440 68646 61424 65026 68630 50620 47011 50614 50604 54218 54208 50606 43397 47022 21720 25353 21728 18119 14498 10886 10834 7230 0 3617 39790 43393 50606 47003 36181 43395 39786 43391 39786 32574 36177 39778 36176 43383 39778 32570 36179 18101 18099 18102 21652 18100 18101 25302 21693 21696 25303 28940 25335 25323 28927 21722 21720 25361 21758 43394 39790 43394 10888 7281 21719 25335 25324 21721 21722 18120 86643 83038 75839 72230 61431 57824 68628 65025 57827 54221 32573 28965 25351 21747 28954 25350 14506 10902 14489 10887 18090 14488 28861 25254 18050 14444 32459 28856 28923 10834 14440 3691 7305 50614 54228 108351 108353 14479 14524 7357 29023 47007 14505 47010 47011 43408 46999
50591 43386 36174 54219 101121 108345 111961 14525 14494 3635 7240 83033 25347 39783 97507 101135 3660 31 42 61467 65070 50620 50596 90241 93956 43397 39784 21704 10879 14475 18116 21743 32563 8 19 104742 10858 50605 54201 57841 10854 65072 68685 44 7253 21731 7283 25347 7272 7248 32553 7272 18118 7267 7272 28949 18126 7251 32553 10901 25337 7270 3671 21732 14510 7275 68721 36174 54197 61427 50626 50627 50628 61416 57812 57861 54235 43387 47006 93904 90268 93870 97460 104745 104727 93856 86639 90246 83036 86638 90252 86639 86639 86639 83032 83023 83030 108261 93845 104744 104741 97451 97449 104660 101054 108264 104659 86639 90258 93846 90248 86637 83036 83035 93859 86645 90257 21721 3648 79430 75820 72215 75823 65029 57807 61409 65013 47003 43394 46997 46987 50601 50591 46989 39780 43405 18103 21736 18111 14502 10881 7269 7217 3613 3617 0 36173 39776 46989 43386 32564 39778 36169 39774 36169 28957 32560 36161 32559 39766 36161 28953 32562 14484 14482 14485 18035 14483 14484 21685 18076 18079 21686 25323 21718 21706 25310 18105 18103 21744 18141 39777 36173 39777 7271 3664 18102 21718 21707 18104 18105 14503 83026 79421 72222 68613 57814 54207 65011 61408 54210 50604 28956 25348 21734 18130 25337 21733 10889 7285 10872 7270 14473 10871 25244 21637 14433 10827 28842 25239 25306 7217 10823 74 3688 46997 50611 104734 104736 10862 10907 3740 25406 43390 10888 43393 43394 39791 43382
86748 79543 72331 90376 137278 144502 148118 21648 43397 32538 28933 119190 61504 75940 133664 137292 39817 36188 36199 97624 101227 86777 86753 126398 130113 79554 75941 57861 47036 50610 32581 14430 3610 36165 36154 140899 25315 86762 90358 93998 25319 101229 104842 36201 43410 57888 43440 61504 43429 43405 68710 43429 54275 43424 43429 65106 54283 43408 68710 47058 61494 43427 39828 57889 50667 43432 104878 7221 90354 97584 86783 86784 86785 97573 93969 94018 90392 79544 83163 130061 126425 130027 133617 140902 140884 130013 122796 126403 119193 122795 126409 122796 122796 122796 119189 119180 119187 144418 130002 140901 140898 133608 133606 140817 137211 144421 140816 122796 126415 130003 126405 122794 119193 119192 130016 122802 126414 57878 39805 115587 111977 108372 111980 101186 93964 97566 101170 83160 79551 83154 83144 86758 86748 83146 75937 79562 54260 57893 54268 50659 47038 43426 43390 39786 39790 36173 0 3603 83146 79543 68721 75935 72326 75931 72326 65114 68717 72318 68716 75923 72318 65110 68719 50641 50639 50642 54208 50640 50641 57820 54211 47008 50615 36062 32457 39783 43387 43388 43386 21635 18032 10824 7220 10824 43406 39799 43387 36183 39790 43385 32570 28968 119183 115578 108379 104770 93971 90364 101168 97565 90367 86761 7217 10825 28857 25253 32460 28856 39792 36188 47007 43405 50608 47006 61417 57810 50606 47000 65015 61412 61463 43390 46996 36231 39845 83154 86768 140891 140893 25311 32600 39897 18093 14437 25345 7220 7221 3618 14429
90351 83146 75934 93979 140881 148105 151721 25251 47000 36141 32536 122793 65107 79543 137267 140895 43420 39791 39802 101227 104830 90380 90356 130001 133716 83157 79544 61464 50639 54213 36184 18033 7213 39768 39757 144502 28918 90365 93961 97601 28922 104832 108445 39804 47013 61491 47043 65107 47032 47008 72313 47032 57878 47027 47032 68709 57886 47011 72313 50661 65097 47030 43431 61492 54270 47035 108481 10824 93957 101187 90386 90387 90388 101176 97572 97621 93995 83147 86766 133664 130028 133630 137220 144505 144487 133616 126399 130006 122796 126398 130012 126399 126399 126399 122792 122783 122790 148021 133605 144504 144501 137211 137209 144420 140814 148024 144419 126399 130018 133606 130008 126397 122796 122795 133619 126405 130017 61481 43408 119190 115580 111975 115583 104789 97567 101169 104773 86763 83154 86757 86747 90361 90351 86749 79540 83165 57863 61496 57871 54262 50641 47029 46993 43389 43393 39776 3603 0 86749 83146 72324 79538 75929 79534 75929 68717 72320 75921 72319 79526 75921 68713 72322 54244 54242 54245 57811 54243 54244 61423 57814 50611 54218 39665 36060 43386 46990 46991 46989 25238 21635 14427 10823 14427 47009 43402 46990 39786 43393 46988 36173 32571 122786 119181 111982 108373 97574 93967 104771 101168 93970 90364 10820 14428 32460 28856 36063 32459 43395 39791 50610 47008 54211 50609 65020 61413 54209 50603 68618 65015 65066 46993 50599 39834 43448 86757 90371 144494 144496 28914 36203 43500 21696 18040 28948 3617 3618 7221 18032
25232 18027 10815 28860 68572 75796 79412 61498 61467 50608 54213 50484 21642 32465 64958 68586 46934 46958 46947 18079 21682 7232 3607 57692 61407 10848 14425 28855 54153 61448 65089 68716 79536 46981 46992 72193 57831 25246 7212 10852 57827 21684 25297 46945 39740 46918 43328 50534 43322 39741 57740 39717 43305 39722 39721 54136 43313 39738 57740 36088 50524 39719 43362 46919 39697 43345 25333 83147 28838 14438 7238 7239 7240 14427 10823 14473 10847 3602 7239 61355 57719 61321 64911 72196 72178 61307 54090 57697 50487 54089 57703 54090 54090 54090 50483 50474 50481 75712 61296 72195 72192 64902 64900 72111 68505 75715 72110 54090 57709 61297 57699 54088 50487 50486 61310 54096 57708 46908 43341 46881 43271 39666 43274 32480 25258 28860 32464 21644 18035 21638 21628 25242 25232 21630 14421 18046 28886 25253 36096 32487 54155 50543 54206 50602 50606 46989 83146 86749 0 3608 14425 7211 10821 7220 28851 18032 28841 25236 21634 28841 25236 25248 28857 57758 57756 57759 61361 57757 57758 68658 65049 65052 68659 72296 68691 68679 72283 65078 65076 68717 65114 86750 83146 86750 54244 50637 65075 68691 68680 65077 65078 61476 50477 46872 39673 36064 25265 21658 32462 28859 21661 18055 75929 72321 68707 65103 72310 68706 57862 54258 57845 54243 61446 57844 68570 64963 61356 57759 72168 68565 32457 54206 57812 46979 50593 14448 18062 72185 72187 57835 57880 50645 72379 90363 57861 90366 90367 86764 90355
28840 21635 14423 32468 72180 79404 83020 57895 57864 47005 50610 54092 18039 28862 68566 72194 43331 43355 43344 21687 25290 10840 7215 61300 65015 14456 18033 25252 50550 57845 61486 65113 75933 43378 43389 75801 54228 28854 10820 14460 54224 25292 28905 43342 36137 43315 39725 46931 39719 36138 54137 36114 39702 36119 36118 50533 39710 36135 54137 32485 46921 36116 39759 43316 36094 39742 28941 79544 32446 18046 10846 10847 10848 18035 14431 18081 14455 7210 10847 64963 61327 64929 68519 75804 75786 64915 57698 61305 54095 57697 61311 57698 57698 57698 54091 54082 54089 79320 64904 75803 75800 68510 68508 75719 72113 79323 75718 57698 61317 64905 61307 57696 54095 54094 64918 57704 61316 43305 39738 50489 46879 43274 46882 36088 28866 32468 36072 25252 21643 25246 25236 28850 28840 25238 18029 21654 25283 21650 32493 28884 50552 46940 50603 46999 47003 43386 79543 83146 3608 0 10822 10819 7217 3612 25248 14429 25238 21633 18031 25238 21633 21645 25254 54155 54153 54156 57758 54154 54155 65055 61446 61449 65056 68693 65088 65076 68680 61475 61473 65114 61511 83147 79543 83147 50641 47034 61472 65088 65077 61474 61475 57873 54085 50480 43281 39672 28873 25266 36070 32467 25269 21663 72326 68718 65104 61500 68707 65103 54259 50655 54242 50640 57843 54241 64967 61360 57753 54156 68565 64962 28854 50603 54209 43376 46990 18056 21670 75793 75795 54232 54277 47042 68776 86760 54258 86763 86764 83161 86752
18027 10822 3610 21655 68557 75781 79397 47073 47042 36183 39788 50469 7217 18040 64943 68571 32509 32533 32522 28903 32506 18056 18032 57677 61392 10833 7220 14430 39728 47023 50664 54291 65111 32556 32567 72178 43406 18041 21637 25277 43402 32508 36121 32520 25315 32493 28903 36109 28897 25316 43315 25292 28880 25297 25296 39711 28888 25313 43315 21663 36099 25294 28937 32494 25272 28920 36157 68722 21633 28863 18062 18063 18064 28852 25248 25297 21671 10823 14442 61340 57704 61306 64896 72181 72163 61292 54075 57682 50472 54074 57688 54075 54075 54075 50468 50459 50466 75697 61281 72180 72177 64887 64885 72096 68490 75700 72095 54075 57694 61282 57684 54073 50472 50471 61295 54081 57693 32483 28916 46866 43256 39651 43259 32465 25243 28845 32449 14439 10830 14433 14423 18037 18027 14425 7216 10841 14461 10828 21671 18062 39730 36118 39781 36177 36181 32564 68721 72324 14425 10822 0 7214 3605 7210 14426 3607 14416 10811 7209 14416 10811 10823 14432 43333 43331 43334 46936 43332 43333 54233 50624 50627 54234 57871 54266 54254 57858 50653 50651 54292 50689 72325 68721 72325 39819 36212 50650 54266 54255 50652 50653 47051 50462 46857 39658 36049 25250 21643 32447 28844 21646 18040 61504 57896 54282 50678 57885 54281 43437 39833 43420 39818 47021 43419 54145 50538 46931 43334 57743 54140 18032 39781 43387 32554 36168 14433 18047 72170 72172 43410 43455 36220 57954 75938 43436 75941 75942 72339 75930
18021 10816 3604 21649 68551 75775 79391 54287 54256 43397 47002 50463 14431 25254 64937 68565 39723 39747 39736 21707 25310 10860 10818 57671 61386 10827 7214 21644 46942 54237 57878 61505 72325 39770 39781 72172 50620 18035 14423 18063 50616 25312 28925 39734 32529 39707 36117 43323 36111 32530 50529 32506 36094 32511 32510 46925 36102 32527 50529 28877 43313 32508 36151 39708 32486 36134 28961 75936 21627 21649 10866 10867 10868 21638 18034 18101 14475 3609 7246 61334 57698 61300 64890 72175 72157 61286 54069 57676 50466 54068 57682 54069 54069 54069 50462 50453 50460 75691 61275 72174 72171 64881 64879 72090 68484 75694 72089 54069 57688 61276 57678 54067 50466 50465 61289 54075 57687 39697 36130 46860 43250 39645 43253 32459 25237 28839 32443 14433 10824 14427 14417 18031 18021 14419 7210 10835 21675 18042 28885 25276 46944 43332 46995 43391 43395 39778 75935 79538 7211 10819 7214 0 3610 7215 21640 10821 21630 18025 14423 21630 18025 18037 21646 50547 50545 50548 54150 50546 50547 61447 57838 57841 61448 65085 61480 61468 65072 57867 57865 61506 57903 79539 75935 79539 47033 43426 57864 61480 61469 57866 57867 54265 50456 46851 39652 36043 25244 21637 32441 28838 21640 18034 68718 65110 61496 57892 65099 61495 50651 47047 50634 47032 54235 50633 61359 57752 54145 50548 64957 61354 25246 46995 50601 39768 43382 14427 18041 72164 72166 50624 50669 43434 65168 83152 50650 83155 83156 79553 83144
21631 14426 7214 25259 72161 79385 83001 50678 50647 39788 43393 54073 10822 21645 68547 72175 36114 36138 36127 25317 28920 14470 14428 61281 64996 14437 10824 18035 43333 50628 54269 57896 68716 36161 36172 75782 47011 21645 18033 21673 47007 28922 32535 36125 28920 36098 32508 39714 32502 28921 46920 28897 32485 28902 28901 43316 32493 28918 46920 25268 39704 28899 32542 36099 28877 32525 32571 72327 25237 25259 14476 14477 14478 25248 21644 21711 18085 7219 10856 64944 61308 64910 68500 75785 75767 64896 57679 61286 54076 57678 61292 57679 57679 57679 54072 54063 54070 79301 64885 75784 75781 68491 68489 75700 72094 79304 75699 57679 61298 64886 61288 57677 54076 54075 64899 57685 61297 36088 32521 50470 46860 43255 46863 36069 28847 32449 36053 18043 14434 18037 18027 21641 21631 18029 10820 14445 18066 14433 25276 21667 43335 39723 43386 39782 39786 36169 72326 75929 10821 7217 3605 3610 0 3605 18031 7212 18021 14416 10814 18021 14416 14428 18037 46938 46936 46939 50541 46937 46938 57838 54229 54232 57839 61476 57871 57859 61463 54258 54256 57897 54294 75930 72326 75930 43424 39817 54255 57871 57860 54257 54258 50656 54066 50461 43262 39653 28854 25247 36051 32448 25250 21644 65109 61501 57887 54283 61490 57886 47042 43438 47025 43423 50626 47024 57750 54143 50536 46939 61348 57745 21637 43386 46992 36159 39773 18037 21651 75774 75776 47015 47060 39825 61559 79543 47041 79546 79547 75944 79535
25236 18031 10819 28864 75766 82990 86606 54283 54252 43393 46998 57678 14427 25250 72152 75780 39719 39743 39732 25299 28902 14452 10827 64886 68601 18042 14429 21640 46938 54233 57874 61501 72321 39766 39777 79387 50616 25250 14432 18072 50612 28904 32517 39730 32525 39703 36113 43319 36107 32526 50525 32502 36090 32507 32506 46921 36098 32523 50525 28873 43309 32504 36147 39704 32482 36130 32553 75932 28842 21658 14458 14459 14460 21647 18043 21693 18067 10822 14459 68549 64913 68515 72105 79390 79372 68501 61284 64891 57681 61283 64897 61284 61284 61284 57677 57668 57675 82906 68490 79389 79386 72096 72094 79305 75699 82909 79304 61284 64903 68491 64893 61282 57681 57680 68504 61290 64902 39693 36126 54075 50465 46860 50468 39674 32452 36054 39658 21648 18039 21642 21632 25246 25236 21634 14425 18050 21671 18038 28881 25272 46940 43328 46991 43387 43391 39774 75931 79534 7220 3612 7210 7215 3605 0 21636 10817 21626 18021 14419 21626 18021 18033 21642 50543 50541 50544 54146 50542 50543 61443 57834 57837 61444 65081 61476 61464 65068 57863 57861 61502 57899 79535 75931 79535 47029 43422 57860 61476 61465 57862 57863 54261 57671 54066 46867 43258 32459 28852 39656 36053 28855 25249 68714 65106 61492 57888 65095 61491 50647 47043 50630 47028 54231 50629 61355 57748 54141 50544 64953 61350 25242 46991 50597 39764 43378 21642 25256 79379 79381 50620 50665 43430 65164 83148 50646 83151 83152 79549 83140
32453 25248 18036 36081 82983 90207 93823 50678 50647 39788 43393 64895 10822 3614 79369 82997 36114 36138 36127 43329 46932 32482 32458 72103 75818 25259 21646 18035 43333 50628 54269 57896 68716 36161 36172 86604 47011 32467 36063 39703 47007 46934 50547 36125 28920 36098 32508 39714 32502 28921 46920 28897 32485 28902 28901 43316 32493 28918 46920 25268 39704 28899 32542 36099 28877 32525 50583 72327 36059 43289 32488 32489 32490 43278 39674 39723 36097 25249 28868 75766 72130 75732 79322 86607 86589 75718 68501 72108 64898 68500 72114 68501 68501 68501 64894 64885 64892 90123 75707 86606 86603 79313 79311 86522 82916 90126 86521 68501 72120 75708 72110 68499 64898 64897 75721 68507 72119 36088 32521 61292 57682 54077 57685 46891 39669 43271 46875 28865 25256 28859 28849 32463 32453 28851 21642 25267 18066 14433 25276 21667 43335 39723 43386 39782 39786 36169 72326 75929 28851 25248 14426 21640 18031 21636 0 10819 3609 10819 7217 7220 3615 7216 10825 46938 46936 46939 50541 46937 46938 57838 54229 54232 57839 61476 57871 57859 61463 54258 54256 57897 54294 75930 72326 75930 43424 39817 54255 57871 57860 54257 54258 50656 64888 61283 54084 50475 39676 36069 46873 43270 36072 32466 65109 61501 57887 54283 61490 57886 47042 43438 47025 43423 50626 47024 57750 54143 50536 46939 61348 57745 21637 43386 46992 36159 39773 28859 32473 86596 86598 47015 47060 39825 61559 79543 47041 79546 79547 75944 79535
21634 14429 7217 25262 72164 79388 83004 43466 43435 32576 36181 54076 3610 14433 68550 72178 28902 28926 28915 32510 36113 21663 21639 61284 64999 14440 10827 10823 36121 43416 47057 50684 61504 28949 28960 75785 39799 21648 25244 28884 39795 36115 39728 28913 21708 28886 25296 32502 25290 21709 39708 21685 25273 21690 21689 36104 25281 21706 39708 18056 32492 21687 25330 28887 21665 25313 39764 65115 25240 32470 21669 21670 21671 32459 28855 28904 25278 14430 18049 64947 61311 64913 68503 75788 75770 64899 57682 61289 54079 57681 61295 57682 57682 57682 54075 54066 54073 79304 64888 75787 75784 68494 68492 75703 72097 79307 75702 57682 61301 64889 61291 57680 54079 54078 64902 57688 61300 28876 25309 50473 46863 43258 46866 36072 28850 32452 36056 18046 14437 18040 18030 21644 21634 18032 10823 14448 10854 7221 18064 14455 36123 32511 36174 32570 32574 28957 65114 68717 18032 14429 3607 10821 7212 10817 10819 0 10809 7204 3602 10809 7204 7216 10825 39726 39724 39727 43329 39725 39726 50626 47017 47020 50627 54264 50659 50647 54251 47046 47044 50685 47082 68718 65114 68718 36212 32605 47043 50659 50648 47045 47046 43444 54069 50464 43265 39656 28857 25250 36054 32451 25253 21647 57897 54289 50675 47071 54278 50674 39830 36226 39813 36211 43414 39812 50538 46931 43324 39727 54136 50533 14425 36174 39780 28947 32561 18040 21654 75777 75779 39803 39848 32613 54347 72331 39829 72334 72335 68732 72323
32443 25238 18026 36071 82973 90197 93813 47069 47038 36179 39784 64885 7213 7223 79359 82987 32505 32529 32518 43319 46922 32472 32448 72093 75808 25249 21636 14426 39724 47019 50660 54287 65107 32552 32563 86594 43402 32457 36053 39693 43398 46924 50537 32516 25311 32489 28899 36105 28893 25312 43311 25288 28876 25293 25292 39707 28884 25309 43311 21659 36095 25290 28933 32490 25268 28916 50573 68718 36049 43279 32478 32479 32480 43268 39664 39713 36087 25239 28858 75756 72120 75722 79312 86597 86579 75708 68491 72098 64888 68490 72104 68491 68491 68491 64884 64875 64882 90113 75697 86596 86593 79303 79301 86512 82906 90116 86511 68491 72110 75698 72100 68489 64888 64887 75711 68497 72109 32479 28912 61282 57672 54067 57675 46881 39659 43261 46865 28855 25246 28849 28839 32453 32443 28841 21632 25257 14457 10824 21667 18058 39726 36114 39777 36173 36177 32560 68717 72320 28841 25238 14416 21630 18021 21626 3609 10809 0 10809 7207 7210 3605 3607 7216 43329 43327 43330 46932 43328 43329 54229 50620 50623 54230 57867 54262 54250 57854 50649 50647 54288 50685 72321 68717 72321 39815 36208 50646 54262 54251 50648 50649 47047 64878 61273 54074 50465 39666 36059 46863 43260 36062 32456 61500 57892 54278 50674 57881 54277 43433 39829 43416 39814 47017 43415 54141 50534 46927 43330 57739 54136 18028 39777 43383 32550 36164 28849 32463 86586 86588 43406 43451 36216 57950 75934 43432 75937 75938 72335 75926
28838 21633 14421 32466 79368 86592 90208 50670 50639 39780 43385 61280 10814 14433 75754 79382 36106 36130 36119 39714 43317 28867 28843 68488 72203 21644 18031 18027 43325 50620 54261 57888 68708 36153 36164 82989 47003 28852 32448 36088 46999 43319 46932 36117 28912 36090 32500 39706 32494 28913 46912 28889 32477 28894 28893 43308 32485 28910 46912 25260 39696 28891 32534 36091 28869 32517 46968 72319 32444 39674 28873 28874 28875 39663 36059 36108 32482 21634 25253 72151 68515 72117 75707 82992 82974 72103 64886 68493 61283 64885 68499 64886 64886 64886 61279 61270 61277 86508 72092 82991 82988 75698 75696 82907 79301 86511 82906 64886 68505 72093 68495 64884 61283 61282 72106 64892 68504 36080 32513 57677 54067 50462 54070 43276 36054 39656 43260 25250 21641 25244 25234 28848 28838 25236 18027 21652 18058 14425 25268 21659 43327 39715 43378 39774 39778 36161 72318 75921 25236 21633 10811 18025 14416 18021 10819 7204 10809 0 3602 10809 7204 14416 18025 46930 46928 46931 50533 46929 46930 57830 54221 54224 57831 61468 57863 57851 61455 54250 54248 57889 54286 75922 72318 75922 43416 39809 54247 57863 57852 54249 54250 50648 61273 57668 50469 46860 36061 32454 43258 39655 32457 28851 65101 61493 57879 54275 61482 57878 47034 43430 47017 43415 50618 47016 57742 54135 50528 46931 61340 57737 21629 43378 46984 36151 39765 25244 28858 82981 82983 47007 47052 39817 61551 79535 47033 79538 79539 75936 79527
25236 18031 10819 28864 75766 82990 86606 47068 47037 36178 39783 57678 7212 10831 72152 75780 32504 32528 32517 36112 39715 25265 25241 64886 68601 18042 14429 14425 39723 47018 50659 54286 65106 32551 32562 79387 43401 25250 28846 32486 43397 39717 43330 32515 25310 32488 28898 36104 28892 25311 43310 25287 28875 25292 25291 39706 28883 25308 43310 21658 36094 25289 28932 32489 25267 28915 43366 68717 28842 36072 25271 25272 25273 36061 32457 32506 28880 18032 21651 68549 64913 68515 72105 79390 79372 68501 61284 64891 57681 61283 64897 61284 61284 61284 57677 57668 57675 82906 68490 79389 79386 72096 72094 79305 75699 82909 79304 61284 64903 68491 64893 61282 57681 57680 68504 61290 64902 32478 28911 54075 50465 46860 50468 39674 32452 36054 39658 21648 18039 21642 21632 25246 25236 21634 14425 18050 14456 10823 21666 18057 39725 36113 39776 36172 36176 32559 68716 72319 21634 18031 7209 14423 10814 14419 7217 3602 7207 3602 0 7207 3602 10814 14423 43328 43326 43329 46931 43327 43328 54228 50619 50622 54229 57866 54261 54249 57853 50648 50646 54287 50684 72320 68716 72320 39814 36207 50645 54261 54250 50647 50648 47046 57671 54066 46867 43258 32459 28852 39656 36053 28855 25249 61499 57891 54277 50673 57880 54276 43432 39828 43415 39813 47016 43414 54140 50533 46926 43329 57738 54135 18027 39776 43382 32549 36163 21642 25256 79379 79381 43405 43450 36215 57949 75933 43431 75936 75937 72334 75925
32443 25238 18026 36071 82973 90197 93813 54275 54244 43385 46990 64885 14419 10834 79359 82987 39711 39735 39724 43319 46922 32472 32448 72093 75808 25249 21636 21632 46930 54225 57866 61493 72313 39758 39769 86594 50608 32457 36053 39693 50604 46924 50537 39722 32517 39695 36105 43311 36099 32518 50517 32494 36082 32499 32498 46913 36090 32515 50517 28865 43301 32496 36139 39696 32474 36122 50573 75924 36049 43279 32478 32479 32480 43268 39664 39713 36087 25239 28858 75756 72120 75722 79312 86597 86579 75708 68491 72098 64888 68490 72104 68491 68491 68491 64884 64875 64882 90113 75697 86596 86593 79303 79301 86512 82906 90116 86511 68491 72110 75698 72100 68489 64888 64887 75711 68497 72109 39685 36118 61282 57672 54067 57675 46881 39659 43261 46865 28855 25246 28849 28839 32453 32443 28841 21632 25257 21663 18030 28873 25264 46932 43320 46983 43379 43383 39766 75923 79526 28841 25238 14416 21630 18021 21626 7220 10809 7210 10809 7207 0 3605 10817 14426 50535 50533 50536 54138 50534 50535 61435 57826 57829 61436 65073 61468 61456 65060 57855 57853 61494 57891 79527 75923 79527 47021 43414 57852 61468 61457 57854 57855 54253 64878 61273 54074 50465 39666 36059 46863 43260 36062 32456 68706 65098 61484 57880 65087 61483 50639 47035 50622 47020 54223 50621 61347 57740 54133 50536 64945 61342 25234 46983 50589 39756 43370 28849 32463 86586 86588 50612 50657 43422 65156 83140 50638 83143 83144 79541 83132
28838 21633 14421 32466 79368 86592 90208 50670 50639 39780 43385 61280 10814 7229 75754 79382 36106 36130 36119 39714 43317 28867 28843 68488 72203 21644 18031 18027 43325 50620 54261 57888 68708 36153 36164 82989 47003 28852 32448 36088 46999 43319 46932 36117 28912 36090 32500 39706 32494 28913 46912 28889 32477 28894 28893 43308 32485 28910 46912 25260 39696 28891 32534 36091 28869 32517 46968 72319 32444 39674 28873 28874 28875 39663 36059 36108 32482 21634 25253 72151 68515 72117 75707 82992 82974 72103 64886 68493 61283 64885 68499 64886 64886 64886 61279 61270 61277 86508 72092 82991 82988 75698 75696 82907 79301 86511 82906 64886 68505 72093 68495 64884 61283 61282 72106 64892 68504 36080 32513 57677 54067 50462 54070 43276 36054 39656 43260 25250 21641 25244 25234 28848 28838 25236 18027 21652 18058 14425 25268 21659 43327 39715 43378 39774 39778 36161 72318 75921 25236 21633 10811 18025 14416 18021 3615 7204 3605 7204 3602 3605 0 7212 10821 46930 46928 46931 50533 46929 46930 57830 54221 54224 57831 61468 57863 57851 61455 54250 54248 57889 54286 75922 72318 75922 43416 39809 54247 57863 57852 54249 54250 50648 61273 57668 50469 46860 36061 32454 43258 39655 32457 28851 65101 61493 57879 54275 61482 57878 47034 43430 47017 43415 50618 47016 57742 54135 50528 46931 61340 57737 21629 43378 46984 36151 39765 25244 28858 82981 82983 47007 47052 39817 61551 79535 47033 79538 79539 75936 79527
28850 21645 14433 32478 79380 86604 90220 43462 43431 32572 36177 61292 3606 10830 75766 79394 28898 28922 28911 39726 43329 28879 28855 68500 72215 21656 18043 10819 36117 43412 47053 50680 61500 28945 28956 83001 39795 28864 32460 36100 39791 43331 46944 28909 21704 28882 25292 32498 25286 21705 39704 21681 25269 21686 21685 36100 25277 21702 39704 18052 32488 21683 25326 28883 21661 25309 46980 65111 32456 39686 28885 28886 28887 39675 36071 36120 32494 21646 25265 72163 68527 72129 75719 83004 82986 72115 64898 68505 61295 64897 68511 64898 64898 64898 61291 61282 61289 86520 72104 83003 83000 75710 75708 82919 79313 86523 82918 64898 68517 72105 68507 64896 61295 61294 72118 64904 68516 28872 25305 57689 54079 50474 54082 43288 36066 39668 43272 25262 21653 25256 25246 28860 28850 25248 18039 21664 10850 7217 18060 14451 36119 32507 36170 32566 32570 28953 65110 68713 25248 21645 10823 18037 14428 18033 7216 7216 3607 14416 10814 10817 7212 0 3609 39722 39720 39723 43325 39721 39722 50622 47013 47016 50623 54260 50655 50643 54247 47042 47040 50681 47078 68714 65110 68714 36208 32601 47039 50655 50644 47041 47042 43440 61285 57680 50481 46872 36073 32466 43270 39667 32469 28863 57893 54285 50671 47067 54274 50670 39826 36222 39809 36207 43410 39808 50534 46927 43320 39723 54132 50529 14421 36170 39776 28943 32557 25256 28870 82993 82995 39799 39844 32609 54343 72327 39825 72330 72331 68728 72319
32459 25254 18042 36087 82989 90213 93829 47071 47040 36181 39786 64901 7215 14439 79375 83003 32507 32531 32520 43335 46938 32488 32464 72109 75824 25265 21652 14428 39726 47021 50662 54289 65109 32554 32565 86610 43404 32473 36069 39709 43400 46940 50553 32518 25313 32491 28901 36107 28895 25314 43313 25290 28878 25295 25294 39709 28886 25311 43313 21661 36097 25292 28935 32492 25270 28918 50589 68720 36065 43295 32494 32495 32496 43284 39680 39729 36103 25255 28874 75772 72136 75738 79328 86613 86595 75724 68507 72114 64904 68506 72120 68507 68507 68507 64900 64891 64898 90129 75713 86612 86609 79319 79317 86528 82922 90132 86527 68507 72126 75714 72116 68505 64904 64903 75727 68513 72125 32481 28914 61298 57688 54083 57691 46897 39675 43277 46881 28871 25262 28865 28855 32469 32459 28857 21648 25273 14459 10826 21669 18060 39728 36116 39779 36175 36179 32562 68719 72322 28857 25254 14432 21646 18037 21642 10825 10825 7216 18025 14423 14426 10821 3609 0 43331 43329 43332 46934 43330 43331 54231 50622 50625 54232 57869 54264 54252 57856 50651 50649 54290 50687 72323 68719 72323 39817 36210 50648 54264 54253 50650 50651 47049 64894 61289 54090 50481 39682 36075 46879 43276 36078 32472 61502 57894 54280 50676 57883 54279 43435 39831 43418 39816 47019 43417 54143 50536 46929 43332 57741 54138 18030 39779 43385 32552 36166 28865 32479 86602 86604 43408 43453 36218 57952 75936 43434 75939 75940 72337 75928
61360 54155 46943 64988 111890 119114 122730 28993 28836 18103 21708 93802 36116 50552 108276 111904 10824 14453 14464 72236 75839 61389 61365 101010 104725 54166 50553 32473 3605 21621 32584 36211 47031 14476 14487 115511 25326 61374 64970 68610 25322 75841 79454 14466 18064 32500 18047 36116 14436 18065 43322 18041 28887 18046 18045 39718 28895 18062 43322 21670 36106 18043 18093 32501 25279 21669 79490 50642 64966 72196 61395 61396 61397 72185 68581 68630 65004 54156 57775 104673 101037 104639 108229 115514 115496 104625 97408 101015 93805 97407 101021 97408 97408 97408 93801 93792 93799 119030 104614 115513 115510 108220 108218 115429 111823 119033 115428 97408 101027 104615 101017 97406 93805 93804 104628 97414 101026 32490 18070 90199 86589 82984 86592 75798 68576 72178 75782 57772 54163 57766 57756 61370 61360 57758 50549 54174 28872 32505 28880 25271 10827 7215 18026 14422 18101 14484 50641 54244 57758 54155 43333 50547 46938 50543 46938 39726 43329 46930 43328 50535 46930 39722 43331 0 2 3 3605 1 2 14411 18020 25225 28832 39791 36186 36048 39652 32447 32445 36212 32609 54245 50641 54245 21739 18132 32444 36186 36049 32446 32573 28971 93795 90190 82991 79382 68583 64976 75780 72177 64979 61373 43424 39816 36202 32598 39805 36201 25357 21753 25340 21738 28827 25225 10814 7207 3602 7208 14412 10809 36075 10818 14424 14496 18110 57766 61380 115503 115505 25330 25375 18162 39874 57858 25356 57861 57862 54259 57850
61358 54153 46941 64986 111888 119112 122728 28991 28836 18101 21706 93800 36114 50550 108274 111902 10822 14451 14462 72234 75837 61387 61363 101008 104723 54164 50551 32471 3603 21621 32582 36209 47029 14474 14485 115509 25324 61372 64968 68608 25320 75839 79452 14464 18062 32498 18045 36114 14434 18063 43320 18039 28885 18044 18043 39716 28893 18060 43320 21668 36104 18041 18091 32499 25277 21667 79488 50640 64964 72194 61393 61394 61395 72183 68579 68628 65002 54154 57773 104671 101035 104637 108227 115512 115494 104623 97406 101013 93803 97405 101019 97406 97406 97406 93799 93790 93797 119028 104612 115511 115508 108218 108216 115427 111821 119031 115426 97406 101025 104613 101015 97404 93803 93802 104626 97412 101024 32488 18068 90197 86587 82982 86590 75796 68574 72176 75780 57770 54161 57764 57754 61368 61358 57756 50547 54172 28870 32503 28878 25269 10825 7213 18024 14420 18099 14482 50639 54242 57756 54153 43331 50545 46936 50541 46936 39724 43327 46928 43326 50533 46928 39720 43329 2 0 3 3605 1 2 14411 18020 25225 28832 39789 36184 36048 39652 32447 32445 36210 32607 54243 50639 54243 21737 18130 32444 36184 36049 32446 32571 28969 93793 90188 82989 79380 68581 64974 75778 72175 64977 61371 43422 39814 36200 32596 39803 36199 25355 21751 25338 21736 28827 25225 10814 7207 3600 7206 14412 10809 36073 10816 14422 14494 18108 57764 61378 115501 115503 25328 25373 18160 39872 57856 25354 57859 57860 54257 57848
61361 54156 46944 64989 111891 119115 122731 28994 28835 18104 21709 93803 36117 50553 108277 111905 10825 14454 14465 72237 75840 61390 61366 101011 104726 54167 50554 32474 3606 21620 32585 36212 47032 14477 14488 115512 25327 61375 64971 68611 25323 75842 79455 14467 18065 32501 18048 36117 14437 18066 43323 18042 28888 18047 18046 39719 28896 18063 43323 21671 36107 18044 18094 32502 25280 21670 79491 50643 64967 72197 61396 61397 61398 72186 68582 68631 65005 54157 57776 104674 101038 104640 108230 115515 115497 104626 97409 101016 93806 97408 101022 97409 97409 97409 93802 93793 93800 119031 104615 115514 115511 108221 108219 115430 111824 119034 115429 97409 101028 104616 101018 97407 93806 93805 104629 97415 101027 32491 18071 90200 86590 82985 86593 75799 68577 72179 75783 57773 54164 57767 57757 61371 61361 57759 50550 54175 28873 32506 28881 25272 10828 7216 18027 14423 18102 14485 50642 54245 57759 54156 43334 50548 46939 50544 46939 39727 43330 46931 43329 50536 46931 39723 43332 3 3 0 3604 2 1 14410 18019 25224 28831 39792 36187 36047 39651 32446 32444 36213 32610 54246 50642 54246 21740 18133 32443 36187 36048 32445 32574 28972 93796 90191 82992 79383 68584 64977 75781 72178 64980 61374 43425 39817 36203 32599 39806 36202 25358 21754 25341 21739 28826 25224 10813 7206 3603 7209 14411 10808 36076 10819 14425 14497 18111 57767 61381 115504 115506 25331 25376 18163 39875 57859 25357 57862 57863 54260 57851
64963 57758 50546 68591 115493 122717 126333 32560 25231 21670 25275 97405 39719 54155 111879 115507 14427 18056 18067 75839 79442 64992 64968 104613 108328 57769 54156 36076 7208 18016 36151 39778 50598 18043 18054 119114 28893 64977 68573 72213 28889 79444 83057 18069 21667 36103 21650 39719 18039 21668 46925 21644 32490 21649 21648 43321 32498 21665 46925 25273 39709 21646 21696 36104 28882 25272 83093 54209 68569 75799 64998 64999 65000 75788 72184 72233 68607 57759 61378 108276 104640 108242 111832 119117 119099 108228 101011 104618 97408 101010 104624 101011 101011 101011 97404 97395 97402 122633 108217 119116 119113 111823 111821 119032 115426 122636 119031 101011 104630 108218 104620 101009 97408 97407 108231 101017 104629 36093 21673 93802 90192 86587 90195 79401 72179 75781 79385 61375 57766 61369 61359 64973 64963 61361 54152 57777 32475 36108 32483 28874 14430 10818 18026 14422 21652 18035 54208 57811 61361 57758 46936 54150 50541 54146 50541 43329 46932 50533 46931 54138 50533 43325 46934 3605 3605 3604 0 3604 3603 10806 14415 21620 25227 43358 39753 32443 36047 28842 28840 39779 36176 57812 54208 57812 25306 21699 28839 36043 32444 28841 36140 32538 97398 93793 86594 82985 72186 68579 79383 75780 68582 64976 46991 43383 39769 36165 43372 39768 28836 25320 28823 25221 25222 21620 7209 3602 3602 7208 10807 7204 39678 10818 14424 18099 21713 61369 64983 119106 119108 28897 28942 21765 43441 61425 28923 61428 61429 57826 61417
61359 54154 46942 64987 111889 119113 122729 28992 28835 18102 21707 93801 36115 50551 108275 111903 10823 14452 14463 72235 75838 61388 61364 101009 104724 54165 50552 32472 3604 21620 32583 36210 47030 14475 14486 115510 25325 61373 64969 68609 25321 75840 79453 14465 18063 32499 18046 36115 14435 18064 43321 18040 28886 18045 18044 39717 28894 18061 43321 21669 36105 18042 18092 32500 25278 21668 79489 50641 64965 72195 61394 61395 61396 72184 68580 68629 65003 54155 57774 104672 101036 104638 108228 115513 115495 104624 97407 101014 93804 97406 101020 97407 97407 97407 93800 93791 93798 119029 104613 115512 115509 108219 108217 115428 111822 119032 115427 97407 101026 104614 101016 97405 93804 93803 104627 97413 101025 32489 18069 90198 86588 82983 86591 75797 68575 72177 75781 57771 54162 57765 57755 61369 61359 57757 50548 54173 28871 32504 28879 25270 10826 7214 18025 14421 18100 14483 50640 54243 57757 54154 43332 50546 46937 50542 46937 39725 43328 46929 43327 50534 46929 39721 43330 1 1 2 3604 0 1 14410 18019 25224 28831 39790 36185 36047 39651 32446 32444 36211 32608 54244 50640 54244 21738 18131 32443 36185 36048 32445 32572 28970 93794 90189 82990 79381 68582 64975 75779 72176 64978 61372 43423 39815 36201 32597 39804 36200 25356 21752 25339 21737 28826 25224 10813 7206 3601 7207 14411 10808 36074 10817 14423 14495 18109 57765 61379 115502 115504 25329 25374 18161 39873 57857 25355 57860 57861 54258 57849
61360 54155 46943 64988 111890 119114 122730 28993 28834 18103 21708 93802 36116 50552 108276 111904 10824 14453 14464 72236 75839 61389 61365 101010 104725 54166 50553 32473 3605 21619 32584 36211 47031 14476 14487 115511 25326 61374 64970 68610 25322 75841 79454 14466 18064 32500 18047 36116 14436 18065 43322 18041 28887 18046 18045 39718 28895 18062 43322 21670 36106 18043 18093 32501 25279 21669 79490 50642 64966 72196 61395 61396 61397 72185 68581 68630 65004 54156 57775 104673 101037 104639 108229 115514 115496 104625 97408 101015 93805 97407 101021 97408 97408 97408 93801 93792 93799 119030 104614 115513 115510 108220 108218 115429 111823 119033 115428 97408 101027 104615 101017 97406 93805 93804 104628 97414 101026 32490 18070 90199 86589 82984 86592 75798 68576 72178 75782 57772 54163 57766 57756 61370 61360 57758 50549 54174 28872 32505 28880 25271 10827 7215 18026 14422 18101 14484 50641 54244 57758 54155 43333 50547 46938 50543 46938 39726 43329 46930 43328 50535 46930 39722 43331 2 2 1 3603 1 0 14409 18018 25223 28830 39791 36186 36046 39650 32445 32443 36212 32609 54245 50641 54245 21739 18132 32442 36186 36047 32444 32573 28971 93795 90190 82991 79382 68583 64976 75780 72177 64979 61373 43424 39816 36202 32598 39805 36201 25357 21753 25340 21738 28825 25223 10812 7205 3602 7208 14410 10807 36075 10818 14424 14496 18110 57766 61380 115503 115505 25330 25375 18162 39874 57858 25356 57861 57862 54259 57850
72260 65055 57843 75888 122790 130014 133630 36172 14425 25282 28887 104702 47016 61452 119176 122804 25233 21700 21711 83136 86739 72289 72265 111910 115625 65066 61453 43373 18014 7210 28839 43390 54210 21677 21666 126411 32505 72274 75870 79510 32501 86741 90354 21713 28922 43400 28952 47016 28845 28917 54222 28941 39787 28936 28941 50618 39795 28920 54222 32570 47006 28939 25340 43401 36179 28944 90390 57821 75866 83096 72295 72296 72297 83085 79481 79530 75904 65056 68675 115573 111937 115539 119129 126414 126396 115525 108308 111915 104705 108307 111921 108308 108308 108308 104701 104692 104699 129930 115514 126413 126410 119120 119118 126329 122723 129933 126328 108308 111927 115515 111917 108306 104705 104704 115528 108314 111926 43390 25317 101099 97489 93884 97492 86698 79476 83078 86682 68672 65063 68666 68656 72270 72260 68658 61449 65074 39772 43405 39780 36171 25236 21624 28832 25228 25302 21685 57820 61423 68658 65055 54233 61447 57838 61443 57838 50626 54229 57830 54228 61435 57830 50622 54231 14411 14411 14410 10806 14410 14409 0 3609 10814 14421 36046 32441 21637 25241 18036 18034 43391 39788 61424 57820 61424 21628 18021 18033 25237 21638 18035 36054 32452 104695 101090 93891 90282 79483 75876 86680 83077 75879 72273 50603 46995 43249 39645 39646 36042 18030 21634 18017 14415 14416 10814 10811 7204 14408 18014 7205 3602 46975 21624 25230 21743 25357 68666 72280 126403 126405 32509 32554 25409 47053 65037 32535 65040 65041 61438 65029
68651 61446 54234 72279 119181 126405 130021 32563 10816 21673 25278 101093 43407 57843 115567 119195 21720 18091 18102 79527 83130 68680 68656 108301 112016 61457 57844 39764 21623 3601 25230 39781 50601 18068 18057 122802 28896 68665 72261 75901 28892 83132 86745 18104 25313 39791 25343 43407 25332 25308 50613 25332 36178 25327 25332 47009 36186 25311 50613 28961 43397 25330 21731 39792 32570 25335 86781 54212 72257 79487 68686 68687 68688 79476 75872 75921 72295 61447 65066 111964 108328 111930 115520 122805 122787 111916 104699 108306 101096 104698 108312 104699 104699 104699 101092 101083 101090 126321 111905 122804 122801 115511 115509 122720 119114 126324 122719 104699 108318 111906 108308 104697 101096 101095 111919 104705 108317 39781 21708 97490 93880 90275 93883 83089 75867 79469 83073 65063 61454 65057 65047 68661 68651 65049 57840 61465 36163 39796 36171 32562 28845 25233 25293 21689 21693 18076 54211 57814 65049 61446 50624 57838 54229 57834 54229 47017 50620 54221 50619 57826 54221 47013 50622 18020 18020 18019 14415 18019 18018 3609 0 7205 10812 32437 28832 18028 21632 14427 14425 39782 36179 57815 54211 57815 18019 14412 14424 21628 18029 14426 32445 28843 101086 97481 90282 86673 75874 72267 83071 79468 72270 68664 46994 43386 39640 36036 36037 32433 14421 18025 14408 10806 10807 7205 14420 10813 18017 21623 10814 7211 43366 25233 28839 18134 21748 65057 68671 122794 122796 28900 28945 21800 43444 61428 28926 61431 61432 57829 61420
68654 61449 54237 72282 119184 126408 130024 25360 3611 14470 18075 101096 43410 57846 115570 119198 21723 18094 18105 79530 83133 68683 68659 108304 112019 61460 57847 39767 28828 3604 18025 32578 43398 18071 18060 122805 21693 68668 72264 75904 21689 83135 86748 18107 25316 39794 25346 43410 25335 25311 50616 25335 36181 25330 25335 47012 36189 25314 50616 28964 43400 25333 21734 39795 32573 25338 86784 47009 72260 79490 68689 68690 68691 79479 75875 75924 72298 61450 65069 111967 108331 111933 115523 122808 122790 111919 104702 108309 101099 104701 108315 104702 104702 104702 101095 101086 101093 126324 111908 122807 122804 115514 115512 122723 119117 126327 122722 104702 108321 111909 108311 104700 101099 101098 111922 104708 108320 39784 21711 97493 93883 90278 93886 83092 75870 79472 83076 65066 61457 65060 65050 68664 68654 65052 57843 61468 36166 39799 36174 32565 28944 25332 25296 21692 21696 18079 47008 50611 65052 61449 50627 57841 54232 57837 54232 47020 50623 54224 50622 57829 54224 47016 50625 25225 25225 25224 21620 25224 25223 10814 7205 0 3607 25232 21627 10823 14427 7222 7220 32579 28976 50612 47008 50612 18022 14415 7219 14423 10824 7221 25240 21638 101089 97484 90285 86676 75877 72270 83074 79471 72273 68667 39791 36183 32435 28831 28832 25228 7216 10820 14411 10809 10810 7208 21625 18018 25222 28828 18019 14416 43369 25296 28902 18137 21751 65060 68674 122797 122799 21697 21742 21803 36241 54225 21723 54228 54229 50626 54217
72261 65056 57844 75889 122791 130015 133631 28967 7218 18077 21682 104703 47017 61453 119177 122805 25330 21701 21712 83137 86740 72290 72266 111911 115626 65067 61454 43374 32435 7211 21632 36185 47005 21678 21667 126412 25300 72275 75871 79511 25296 86742 90355 21714 28923 43401 28953 47017 28942 28918 54223 28942 39788 28937 28942 50619 39796 28921 54223 32571 47007 28940 25341 43402 36180 28945 90391 50616 75867 83097 72296 72297 72298 83086 79482 79531 75905 65057 68676 115574 111938 115540 119130 126415 126397 115526 108309 111916 104706 108308 111922 108309 108309 108309 104702 104693 104700 129931 115515 126414 126411 119121 119119 126330 122724 129934 126329 108309 111928 115516 111918 108307 104706 104705 115529 108315 111927 43391 25318 101100 97490 93885 97493 86699 79477 83079 86683 68673 65064 68667 68657 72271 72261 68659 61450 65075 39773 43406 39781 36172 32551 28939 28903 25299 25303 21686 50615 54218 68659 65056 54234 61448 57839 61444 57839 50627 54230 57831 54229 61436 57831 50623 54232 28832 28832 28831 25227 28831 28830 14421 10812 3607 0 28839 25234 14430 18034 10829 10827 36186 32583 54219 50615 54219 21629 18022 10826 18030 14431 10828 28847 25245 104696 101091 93892 90283 79484 75877 86681 83078 75880 72274 43398 39790 36042 32438 32439 28835 10823 14427 18018 14416 14417 10815 25232 21625 28829 32435 21626 18023 46976 28903 32509 21744 25358 68667 72281 126404 126406 25304 25349 25410 39848 57832 25330 57835 57836 54233 57824
75898 68693 61481 79526 126428 133652 137268 14414 21621 21688 18083 108340 50654 65090 122814 126442 28967 25338 25349 86774 90377 75927 75903 115548 119263 68704 65091 47011 36186 28836 7207 21632 32452 25315 25304 130049 14473 75912 79508 83148 14469 90379 93992 25351 32560 47038 32590 50654 32579 32555 57860 32579 43425 32574 32579 54256 43433 32558 57860 36208 50644 32577 28978 47039 39817 32582 94028 36063 79504 86734 75933 75934 75935 86723 83119 83168 79542 68694 72313 119211 115575 119177 122767 130052 130034 119163 111946 115553 108343 111945 115559 111946 111946 111946 108339 108330 108337 133568 119152 130051 130048 122758 122756 129967 126361 133571 129966 111946 115565 119153 115555 111944 108343 108342 119166 111952 115564 47028 28955 104737 101127 97522 101130 90336 83114 86716 90320 72310 68701 72304 72294 75908 75898 72296 65087 68712 43410 47043 43418 39809 36188 32576 32540 28936 28940 25323 36062 39665 72296 68693 57871 65085 61476 65081 61476 54264 57867 61468 57866 65073 61468 54260 57869 39791 39789 39792 43358 39790 39791 36046 32437 25232 28839 0 3605 14409 18013 18014 18012 21633 18030 39666 36062 39666 32556 28949 18013 10809 14416 18011 14422 10820 108333 104728 97529 93920 83121 79514 90318 86715 79517 75911 28845 25237 14413 10809 10810 7206 25226 25338 36157 32555 36042 32440 46857 43250 39756 36150 43251 39648 50613 32540 36146 25381 28995 72304 75918 130041 130043 14477 21750 29047 25295 43279 14503 43282 43283 39680 43271
72293 65088 57876 75921 122823 130047 133663 10809 18016 18083 14478 104735 47049 61485 119209 122837 25362 21733 21744 83169 86772 72322 72298 111943 115658 65099 61486 43406 32581 25231 3602 18027 28847 21710 21699 126444 10868 72307 75903 79543 10864 86774 90387 21746 28955 43433 28985 47049 28974 28950 54255 28974 39820 28969 28974 50651 39828 28953 54255 32603 47039 28972 25373 43434 36212 28977 90423 32458 75899 83129 72328 72329 72330 83118 79514 79563 75937 65089 68708 115606 111970 115572 119162 126447 126429 115558 108341 111948 104738 108340 111954 108341 108341 108341 104734 104725 104732 129963 115547 126446 126443 119153 119151 126362 122756 129966 126361 108341 111960 115548 111950 108339 104738 104737 115561 108347 111959 43423 25350 101132 97522 93917 97525 86731 79509 83111 86715 68705 65096 68699 68689 72303 72293 68691 61482 65107 39805 43438 39813 36204 32583 28971 28935 25331 25335 21718 32457 36060 68691 65088 54266 61480 57871 61476 57871 50659 54262 57863 54261 61468 57863 50655 54264 36186 36184 36187 39753 36185 36186 32441 28832 21627 25234 3605 0 10804 14408 14409 14407 18028 14425 36061 32457 36061 28951 25344 14408 7204 10811 14406 10817 7215 104728 101123 93924 90315 79516 75909 86713 83110 75912 72306 25240 21632 10808 7204 7205 3601 21621 21733 32552 28950 32437 28835 43252 39645 36151 32545 39646 36043 47008 28935 32541 21776 25390 68699 72313 126436 126438 10872 18145 25442 21690 39674 10898 39677 39678 36075 39666
72281 65076 57864 75909 122811 130035 133651 18135 7212 18071 18078 104723 47037 61473 119197 122825 25350 21721 21732 83157 86760 72310 72286 111931 115646 65087 61474 43394 32569 14427 7202 25353 36173 21698 21687 126432 14468 72295 75891 79531 14464 86762 90375 21734 28943 43421 28973 47037 28962 28938 54243 28962 39808 28957 28962 50639 39816 28941 54243 32591 47027 28960 25361 43422 36200 28965 90411 39784 75887 83117 72316 72317 72318 83106 79502 79551 75925 65077 68696 115594 111958 115560 119150 126435 126417 115546 108329 111936 104726 108328 111942 108329 108329 108329 104722 104713 104720 129951 115535 126434 126431 119141 119139 126350 122744 129954 126349 108329 111948 115536 111938 108327 104726 104725 115549 108335 111947 43411 25338 101120 97510 93905 97513 86719 79497 83099 86703 68693 65084 68687 68677 72291 72281 68679 61470 65095 39793 43426 39801 36192 32571 28959 28923 25319 25323 21706 39783 43386 68679 65076 54254 61468 57859 61464 57859 50647 54250 57851 54249 61456 57851 50643 54252 36048 36048 36047 32443 36047 36046 21637 18028 10823 14430 14409 10804 0 3604 3605 3603 25354 21751 43387 39783 43387 28845 25238 3604 3600 7205 3602 14417 10815 104716 101111 93912 90303 79504 75897 86701 83098 75900 72294 32566 28958 21612 18008 18009 14405 10817 14421 25234 21632 21633 18031 32448 28841 36045 32533 28842 25239 46996 28923 32529 21764 25378 68687 72301 126424 126426 14472 21745 25430 29016 47000 14498 47003 47004 43401 46992
75885 68680 61468 79513 126415 133639 137255 21739 10816 21675 21682 108327 50641 65077 122801 126429 28954 25325 25336 86761 90364 75914 75890 115535 119250 68691 65078 46998 36173 18031 10806 28957 39777 25302 25291 130036 18072 75899 79495 83135 18068 90366 93979 25338 32547 47025 32577 50641 32566 32542 57847 32566 43412 32561 32566 54243 43420 32545 57847 36195 50631 32564 28965 47026 39804 32569 94015 43388 79491 86721 75920 75921 75922 86710 83106 83155 79529 68681 72300 119198 115562 119164 122754 130039 130021 119150 111933 115540 108330 111932 115546 111933 111933 111933 108326 108317 108324 133555 119139 130038 130035 122745 122743 129954 126348 133558 129953 111933 115552 119140 115542 111931 108330 108329 119153 111939 115551 47015 28942 104724 101114 97509 101117 90323 83101 86703 90307 72297 68688 72291 72281 75895 75885 72283 65074 68699 43397 47030 43405 39796 36175 32563 32527 28923 28927 25310 43387 46990 72283 68680 57858 65072 61463 65068 61463 54251 57854 61455 57853 65060 61455 54247 57856 39652 39652 39651 36047 39651 39650 25241 21632 14427 18034 18013 14408 3604 0 7209 7207 28958 25355 46991 43387 46991 32449 28842 7208 7204 10809 7206 18021 14419 108320 104715 97516 93907 83108 79501 90305 86702 79504 75898 36170 32562 25216 21612 21613 18009 14421 18025 28838 25236 25237 21635 36052 32445 39649 36137 32446 28843 50600 32527 36133 25368 28982 72291 75905 130028 130030 18076 25349 29034 32620 50604 18102 50607 50608 47005 50596
68680 61475 54263 72308 119210 126434 130050 21740 3611 14470 18075 101122 43436 57872 115596 119224 21749 18120 18131 79556 83159 68709 68685 108330 112045 61486 57873 39793 28968 10826 10807 28958 39778 18097 18086 122831 18073 68694 72290 75930 18069 83161 86774 18133 25342 39820 25372 43436 25361 25337 50642 25361 36207 25356 25361 47038 36215 25340 50642 28990 43426 25359 21760 39821 32599 25364 86810 43389 72286 79516 68715 68716 68717 79505 75901 75950 72324 61476 65095 111993 108357 111959 115549 122834 122816 111945 104728 108335 101125 104727 108341 104728 104728 104728 101121 101112 101119 126350 111934 122833 122830 115540 115538 122749 119143 126353 122748 104728 108347 111935 108337 104726 101125 101124 111948 104734 108346 39810 21737 97519 93909 90304 93912 83118 75896 79498 83102 65092 61483 65086 65076 68690 68680 65078 57869 61494 36192 39825 36200 32591 28970 25358 25322 21718 21722 18105 43388 46991 65078 61475 50653 57867 54258 57863 54258 47046 50649 54250 50648 57855 54250 47042 50651 32447 32447 32446 28842 32446 32445 18036 14427 7222 10829 18014 14409 3605 7209 0 2 28959 25356 46992 43388 46992 25244 21637 3 7205 3606 3 18022 14420 101115 97510 90311 86702 75903 72296 83100 79497 72299 68693 36171 32563 25217 21613 21614 18010 7216 10820 21633 18031 18032 14430 28847 25240 32444 28932 25241 21638 43395 25322 28928 18163 21777 65086 68700 122823 122825 18077 21742 21829 32621 50605 18103 50608 50609 47006 50597
68678 61473 54261 72306 119208 126432 130048 21738 3609 14468 18073 101120 43434 57870 115594 119222 21747 18118 18129 79554 83157 68707 68683 108328 112043 61484 57871 39791 28966 10824 10805 28956 39776 18095 18084 122829 18071 68692 72288 75928 18067 83159 86772 18131 25340 39818 25370 43434 25359 25335 50640 25359 36205 25354 25359 47036 36213 25338 50640 28988 43424 25357 21758 39819 32597 25362 86808 43387 72284 79514 68713 68714 68715 79503 75899 75948 72322 61474 65093 111991 108355 111957 115547 122832 122814 111943 104726 108333 101123 104725 108339 104726 104726 104726 101119 101110 101117 126348 111932 122831 122828 115538 115536 122747 119141 126351 122746 104726 108345 111933 108335 104724 101123 101122 111946 104732 108344 39808 21735 97517 93907 90302 93910 83116 75894 79496 83100 65090 61481 65084 65074 68688 68678 65076 57867 61492 36190 39823 36198 32589 28968 25356 25320 21716 21720 18103 43386 46989 65076 61473 50651 57865 54256 57861 54256 47044 50647 54248 50646 57853 54248 47040 50649 32445 32445 32444 28840 32444 32443 18034 14425 7220 10827 18012 14407 3603 7207 2 0 28957 25354 46990 43386 46990 25242 21635 1 7203 3604 1 18020 14418 101113 97508 90309 86700 75901 72294 83098 79495 72297 68691 36169 32561 25215 21611 21612 18008 7214 10818 21631 18029 18030 14428 28845 25238 32442 28930 25239 21636 43393 25320 28926 18161 21775 65084 68698 122821 122823 18075 21740 21827 32619 50603 18101 50606 50607 47004 50595
72319 65114 57902 75947 122849 130073 133689 7219 28968 18109 14504 104761 47075 61511 119235 122863 25388 21759 21770 83195 86798 72348 72324 111969 115684 65125 61512 43432 32607 36181 18152 7205 18025 21736 21725 126470 10886 72333 75929 79569 10890 86800 90413 21772 28981 43459 29011 47075 29000 28976 54281 29000 39846 28995 29000 50677 39854 28979 54281 32629 47065 28998 25399 43460 36238 29003 90449 21636 75925 83155 72354 72355 72356 83144 79540 79589 75963 65115 68734 115632 111996 115598 119188 126473 126455 115584 108367 111974 104764 108366 111980 108367 108367 108367 104760 104751 104758 129989 115573 126472 126469 119179 119177 126388 122782 129992 126387 108367 111986 115574 111976 108365 104764 104763 115587 108373 111985 43449 25376 101158 97548 93943 97551 86757 79535 83137 86741 68731 65122 68725 68715 72329 72319 68717 61508 65133 39831 43464 39839 36230 32609 28997 28961 25357 25361 21744 21635 25238 68717 65114 54292 61506 57897 61502 57897 50685 54288 57889 54287 61494 57889 50681 54290 36212 36210 36213 39779 36211 36212 43391 39782 32579 36186 21633 18028 25354 28958 28959 28957 0 3603 25239 21635 25239 28977 25370 28958 21754 25361 28956 18141 14539 104754 101149 93950 90341 79542 75935 86739 83136 75938 72332 14418 10810 14428 10824 18031 14427 25363 21759 32578 28976 36179 32577 46988 43381 36177 32571 50586 46983 47034 28961 32567 21802 25416 68725 72339 126462 126464 10882 18171 25468 10868 28852 10916 28855 28856 25253 28844
68716 61511 54299 72344 119246 126470 130086 3616 25365 14506 10901 101158 43472 57908 115632 119260 21785 18156 18167 79592 83195 68745 68721 108366 112081 61522 57909 39829 29004 32578 14549 3602 14422 18133 18122 122867 7283 68730 72326 75966 7287 83197 86810 18169 25378 39856 25408 43472 25397 25373 50678 25397 36243 25392 25397 47074 36251 25376 50678 29026 43462 25395 21796 39857 32635 25400 86846 18033 72322 79552 68751 68752 68753 79541 75937 75986 72360 61512 65131 112029 108393 111995 115585 122870 122852 111981 104764 108371 101161 104763 108377 104764 104764 104764 101157 101148 101155 126386 111970 122869 122866 115576 115574 122785 119179 126389 122784 104764 108383 111971 108373 104762 101161 101160 111984 104770 108382 39846 21773 97555 93945 90340 93948 83154 75932 79534 83138 65128 61519 65122 65112 68726 68716 65114 57905 61530 36228 39861 36236 32627 29006 25394 25358 21754 21758 18141 18032 21635 65114 61511 50689 57903 54294 57899 54294 47082 50685 54286 50684 57891 54286 47078 50687 32609 32607 32610 36176 32608 32609 39788 36179 28976 32583 18030 14425 21751 25355 25356 25354 3603 0 21636 18032 21636 25374 21767 25355 18151 21758 25353 14538 10936 101151 97546 90347 86738 75939 72332 83136 79533 72335 68729 10815 7207 10825 7221 14428 10824 21760 18156 28975 25373 32576 28974 43385 39778 32574 28968 46983 43380 43431 25358 28964 18199 21813 65122 68736 122859 122861 7279 14568 21865 7265 25249 7313 25252 25253 21650 25241
90352 83147 75935 93980 140882 148106 151722 25252 47001 36142 32537 122794 65108 79544 137268 140896 43421 39792 39803 101228 104831 90381 90357 130002 133717 83158 79545 61465 50640 54214 36185 18034 7214 39769 39758 144503 28919 90366 93962 97602 28923 104833 108446 39805 47014 61492 47044 65108 47033 47009 72314 47033 57879 47028 47033 68710 57887 47012 72314 50662 65098 47031 43432 61493 54271 47036 108482 10825 93958 101188 90387 90388 90389 101177 97573 97622 93996 83148 86767 133665 130029 133631 137221 144506 144488 133617 126400 130007 122797 126399 130013 126400 126400 126400 122793 122784 122791 148022 133606 144505 144502 137212 137210 144421 140815 148025 144420 126400 130019 133607 130009 126398 122797 122796 133620 126406 130018 61482 43409 119191 115581 111976 115584 104790 97568 101170 104774 86764 83155 86758 86748 90362 90352 86750 79541 83166 57864 61497 57872 54263 50642 47030 46994 43390 43394 39777 10824 14427 86750 83147 72325 79539 75930 79535 75930 68718 72321 75922 72320 79527 75922 68714 72323 54245 54243 54246 57812 54244 54245 61424 57815 50612 54219 39666 36061 43387 46991 46992 46990 25239 21636 0 3604 7208 47010 43403 46991 39787 43394 46989 36174 32572 122787 119182 111983 108374 97575 93968 104772 101169 93971 90365 10821 14429 32461 28857 36064 32460 43396 39792 50611 47009 54212 50610 65021 61414 54210 50604 68619 65016 65067 46994 50600 39835 43449 86758 90372 144495 144497 28915 36204 43501 21697 10821 28949 18044 18045 14442 10813
86748 79543 72331 90376 137278 144502 148118 21648 43397 32538 28933 119190 61504 75940 133664 137292 39817 36188 36199 97624 101227 86777 86753 126398 130113 79554 75941 57861 47036 50610 32581 14430 3610 36165 36154 140899 25315 86762 90358 93998 25319 101229 104842 36201 43410 57888 43440 61504 43429 43405 68710 43429 54275 43424 43429 65106 54283 43408 68710 47058 61494 43427 39828 57889 50667 43432 104878 7221 90354 97584 86783 86784 86785 97573 93969 94018 90392 79544 83163 130061 126425 130027 133617 140902 140884 130013 122796 126403 119193 122795 126409 122796 122796 122796 119189 119180 119187 144418 130002 140901 140898 133608 133606 140817 137211 144421 140816 122796 126415 130003 126405 122794 119193 119192 130016 122802 126414 57878 39805 115587 111977 108372 111980 101186 93964 97566 101170 83160 79551 83154 83144 86758 86748 83146 75937 79562 54260 57893 54268 50659 47038 43426 43390 39786 39790 36173 7220 10823 83146 79543 68721 75935 72326 75931 72326 65114 68717 72318 68716 75923 72318 65110 68719 50641 50639 50642 54208 50640 50641 57820 54211 47008 50615 36062 32457 39783 43387 43388 43386 21635 18032 3604 0 3604 43406 39799 43387 36183 39790 43385 32570 28968 119183 115578 108379 104770 93971 90364 101168 97565 90367 86761 7217 10825 28857 25253 32460 28856 39792 36188 47007 43405 50608 47006 61417 57810 50606 47000 65015 61412 61463 43390 46996 36231 39845 83154 86768 140891 140893 25311 32600 39897 18093 7217 25345 14440 14441 10838 7209
90352 83147 75935 93980 140882 148106 151722 25252 47001 36142 32537 122794 65108 79544 137268 140896 43421 39792 39803 101228 104831 90381 90357 130002 133717 83158 79545 61465 50640 54214 36185 18034 7214 39769 39758 144503 28919 90366 93962 97602 28923 104833 108446 39805 47014 61492 47044 65108 47033 47009 72314 47033 57879 47028 47033 68710 57887 47012 72314 50662 65098 47031 43432 61493 54271 47036 108482 10825 93958 101188 90387 90388 90389 101177 97573 97622 93996 83148 86767 133665 130029 133631 137221 144506 144488 133617 126400 130007 122797 126399 130013 126400 126400 126400 122793 122784 122791 148022 133606 144505 144502 137212 137210 144421 140815 148025 144420 126400 130019 133607 130009 126398 122797 122796 133620 126406 130018 61482 43409 119191 115581 111976 115584 104790 97568 101170 104774 86764 83155 86758 86748 90362 90352 86750 79541 83166 57864 61497 57872 54263 50642 47030 46994 43390 43394 39777 10824 14427 86750 83147 72325 79539 75930 79535 75930 68718 72321 75922 72320 79527 75922 68714 72323 54245 54243 54246 57812 54244 54245 61424 57815 50612 54219 39666 36061 43387 46991 46992 46990 25239 21636 7208 3604 0 47010 43403 46991 39787 43394 46989 36174 32572 122787 119182 111983 108374 97575 93968 104772 101169 93971 90365 10821 14429 32461 28857 36064 32460 43396 39792 50611 47009 54212 50610 65021 61414 54210 50604 68619 65016 65067 46994 50600 39835 43449 86758 90372 144495 144497 28915 36204 43501 21697 3613 28949 18044 18045 14442 3605
57846 50641 43429 61474 108376 115600 119216 21758 21633 10868 14473 90288 32602 47038 104762 108390 10915 7286 7297 68722 72325 57875 57851 97496 101211 50652 47039 28959 18134 14418 25349 28976 39796 7263 7252 111997 18091 57860 61456 65096 18087 72327 75940 7299 14508 28986 14538 32602 14527 14503 39808 14527 25373 14522 14527 36204 25381 14506 39808 18156 32592 14525 10926 28987 21765 14530 75976 43407 61452 68682 57881 57882 57883 68671 65067 65116 61490 50642 54261 101159 97523 101125 104715 112000 111982 101111 93894 97501 90291 93893 97507 93894 93894 93894 90287 90278 90285 115516 101100 111999 111996 104706 104704 111915 108309 115519 111914 93894 97513 101101 97503 93892 90291 90290 101114 93900 97512 28976 10903 86685 83075 79470 83078 72284 65062 68664 72268 54258 50649 54252 54242 57856 57846 54244 47035 50660 25358 28991 25366 21757 18136 14524 14488 10884 10888 7271 43406 47009 54244 50641 39819 47033 43424 47029 43424 36212 39815 43416 39814 47021 43416 36208 39817 21739 21737 21740 25306 21738 21739 21628 18019 18022 21629 32556 28951 28845 32449 25244 25242 28977 25374 47010 43406 47010 0 3607 25241 28951 28846 25243 25338 21736 90281 86676 79477 75868 65069 61462 72266 68663 61465 57859 36189 32581 28967 25363 32570 28966 18122 14518 10815 7213 14416 10814 32439 28832 21704 18098 28833 25230 32561 14488 18094 7329 10943 54252 57866 111989 111991 18095 18140 10995 32639 50623 18121 50626 50627 47024 50615
54239 47034 39822 57867 104769 111993 115609 18151 18026 7261 10866 86681 28995 43431 101155 104783 7308 3679 3690 65115 68718 54268 54244 93889 97604 47045 43432 25352 14527 10811 21742 25369 36189 3656 3645 108390 14484 54253 57849 61489 14480 68720 72333 3692 10901 25379 10931 28995 10920 10896 36201 10920 21766 10915 10920 32597 21774 10899 36201 14549 28985 10918 7319 25380 18158 10923 72369 39800 57845 65075 54274 54275 54276 65064 61460 61509 57883 47035 50654 97552 93916 97518 101108 108393 108375 97504 90287 93894 86684 90286 93900 90287 90287 90287 86680 86671 86678 111909 97493 108392 108389 101099 101097 108308 104702 111912 108307 90287 93906 97494 93896 90285 86684 86683 97507 90293 93905 25369 7296 83078 79468 75863 79471 68677 61455 65057 68661 50651 47042 50645 50635 54249 54239 50637 43428 47053 21751 25384 21759 18150 14529 10917 10881 7277 7281 3664 39799 43402 50637 47034 36212 43426 39817 43422 39817 32605 36208 39809 36207 43414 39809 32601 36210 18132 18130 18133 21699 18131 18132 18021 14412 14415 18022 28949 25344 25238 28842 21637 21635 25370 21767 43403 39799 43403 3607 0 21634 25344 25239 21636 21731 18129 86674 83069 75870 72261 61462 57855 68659 65056 57858 54252 32582 28974 25360 21756 28963 25359 14515 10911 7208 3606 10809 7207 28832 25225 18097 14491 25226 21623 28954 10881 14487 3722 7336 50645 54259 108382 108384 14488 14533 7388 29032 47016 14514 47019 47020 43417 47008
68677 61472 54260 72305 119207 126431 130047 21739 3608 14467 18072 101119 43433 57869 115593 119221 21746 18117 18128 79553 83156 68706 68682 108327 112042 61483 57870 39790 28965 10823 10806 28957 39777 18094 18083 122828 18072 68691 72287 75927 18068 83158 86771 18130 25339 39817 25369 43433 25358 25334 50639 25358 36204 25353 25358 47035 36212 25337 50639 28987 43423 25356 21757 39818 32596 25361 86807 43388 72283 79513 68712 68713 68714 79502 75898 75947 72321 61473 65092 111990 108354 111956 115546 122831 122813 111942 104725 108332 101122 104724 108338 104725 104725 104725 101118 101109 101116 126347 111931 122830 122827 115537 115535 122746 119140 126350 122745 104725 108344 111932 108334 104723 101122 101121 111945 104731 108343 39807 21734 97516 93906 90301 93909 83115 75893 79495 83099 65089 61480 65083 65073 68687 68677 65075 57866 61491 36189 39822 36197 32588 28967 25355 25319 21715 21719 18102 43387 46990 65075 61472 50650 57864 54255 57860 54255 47043 50646 54247 50645 57852 54247 47039 50648 32444 32444 32443 28839 32443 32442 18033 14424 7219 10826 18013 14408 3604 7208 3 1 28958 25355 46991 43387 46991 25241 21634 0 7204 3605 2 18021 14419 101112 97507 90308 86699 75900 72293 83097 79494 72296 68690 36170 32562 25216 21612 21613 18009 7213 10817 21630 18028 18029 14427 28844 25237 32441 28929 25238 21635 43392 25319 28925 18160 21774 65083 68697 122820 122822 18076 21739 21826 32620 50604 18102 50607 50608 47005 50596
72293 65088 57876 75921 122823 130047 133663 14535 10812 18083 14478 104735 47049 61485 119209 122837 25362 21733 21744 83169 86772 72322 72298 111943 115658 65099 61486 43406 32581 18027 3602 21753 32573 21710 21699 126444 10868 72307 75903 79543 10864 86774 90387 21746 28955 43433 28985 47049 28974 28950 54255 28974 39820 28969 28974 50651 39828 28953 54255 32603 47039 28972 25373 43434 36212 28977 90423 36184 75899 83129 72328 72329 72330 83118 79514 79563 75937 65089 68708 115606 111970 115572 119162 126447 126429 115558 108341 111948 104738 108340 111954 108341 108341 108341 104734 104725 104732 129963 115547 126446 126443 119153 119151 126362 122756 129966 126361 108341 111960 115548 111950 108339 104738 104737 115561 108347 111959 43423 25350 101132 97522 93917 97525 86731 79509 83111 86715 68705 65096 68699 68689 72303 72293 68691 61482 65107 39805 43438 39813 36204 32583 28971 28935 25331 25335 21718 36183 39786 68691 65088 54266 61480 57871 61476 57871 50659 54262 57863 54261 61468 57863 50655 54264 36186 36184 36187 36043 36185 36186 25237 21628 14423 18030 10809 7204 3600 7204 7205 7203 21754 18151 39787 36183 39787 28951 25344 7204 0 3607 7202 10817 7215 104728 101123 93924 90315 79516 75909 86713 83110 75912 72306 28966 25358 18012 14408 14409 10805 14417 18021 28834 25232 25233 21631 36048 32441 36151 32545 32442 28839 47008 28935 32541 21776 25390 68699 72313 126436 126438 10872 18145 25442 25416 43400 10898 43403 43404 39801 43392
72282 65077 57865 75910 122812 130036 133652 18142 7213 18072 18085 104724 47038 61474 119198 122826 25351 21722 21733 83158 86761 72311 72287 111932 115647 65088 61475 43395 32570 14428 7209 25360 36180 21699 21688 126433 14475 72296 75892 79532 14471 86763 90376 21735 28944 43422 28974 47038 28963 28939 54244 28963 39809 28958 28963 50640 39817 28942 54244 32592 47028 28961 25362 43423 36201 28966 90412 39791 75888 83118 72317 72318 72319 83107 79503 79552 75926 65078 68697 115595 111959 115561 119151 126436 126418 115547 108330 111937 104727 108329 111943 108330 108330 108330 104723 104714 104721 129952 115536 126435 126432 119142 119140 126351 122745 129955 126350 108330 111949 115537 111939 108328 104727 104726 115550 108336 111948 43412 25339 101121 97511 93906 97514 86720 79498 83100 86704 68694 65085 68688 68678 72292 72282 68680 61471 65096 39794 43427 39802 36193 32572 28960 28924 25320 25324 21707 39790 43393 68680 65077 54255 61469 57860 61465 57860 50648 54251 57852 54250 61457 57852 50644 54253 36049 36049 36048 32444 36048 36047 21638 18029 10824 14431 14416 10811 7205 10809 3606 3604 25361 21758 43394 39790 43394 28846 25239 3605 3607 0 3603 14424 10822 104717 101112 93913 90304 79505 75898 86702 83099 75901 72295 32573 28965 21619 18015 18016 14412 10818 14422 25235 21633 21634 18032 32449 28842 36046 32534 28843 25240 46997 28924 32530 21765 25379 68688 72302 126425 126427 14479 21752 25431 29023 47007 14505 47010 47011 43408 46999
68679 61474 54262 72307 119209 126433 130049 21737 3610 14469 18074 101121 43435 57871 115595 119223 21748 18119 18130 79555 83158 68708 68684 108329 112044 61485 57872 39792 28967 10825 10804 28955 39775 18096 18085 122830 18070 68693 72289 75929 18066 83160 86773 18132 25341 39819 25371 43435 25360 25336 50641 25360 36206 25355 25360 47037 36214 25339 50641 28989 43425 25358 21759 39820 32598 25363 86809 43386 72285 79515 68714 68715 68716 79504 75900 75949 72323 61475 65094 111992 108356 111958 115548 122833 122815 111944 104727 108334 101124 104726 108340 104727 104727 104727 101120 101111 101118 126349 111933 122832 122829 115539 115537 122748 119142 126352 122747 104727 108346 111934 108336 104725 101124 101123 111947 104733 108345 39809 21736 97518 93908 90303 93911 83117 75895 79497 83101 65091 61482 65085 65075 68689 68679 65077 57868 61493 36191 39824 36199 32590 28969 25357 25321 21717 21721 18104 43385 46988 65077 61474 50652 57866 54257 57862 54257 47045 50648 54249 50647 57854 54249 47041 50650 32446 32446 32445 28841 32445 32444 18035 14426 7221 10828 18011 14406 3602 7206 3 1 28956 25353 46989 43385 46989 25243 21636 2 7202 3603 0 18019 14417 101114 97509 90310 86701 75902 72295 83099 79496 72298 68692 36168 32560 25214 21610 21611 18007 7215 10819 21632 18030 18031 14429 28846 25239 32443 28931 25240 21637 43394 25321 28927 18162 21776 65085 68699 122822 122824 18074 21741 21828 32618 50602 18100 50605 50606 47003 50594
68680 61475 54263 72308 119210 126434 130050 10922 21629 14470 10865 101122 43436 57872 115596 119224 21749 18120 18131 79556 83159 68709 68685 108330 112045 61486 57873 39793 28968 28844 7215 18140 28960 18097 18086 122831 7255 68694 72290 75930 7251 83161 86774 18133 25342 39820 25372 43436 25361 25337 50642 25361 36207 25356 25361 47038 36215 25340 50642 28990 43426 25359 21760 39821 32599 25364 86810 32571 72286 79516 68715 68716 68717 79505 75901 75950 72324 61476 65095 111993 108357 111959 115549 122834 122816 111945 104728 108335 101125 104727 108341 104728 104728 104728 101121 101112 101119 126350 111934 122833 122830 115540 115538 122749 119143 126353 122748 104728 108347 111935 108337 104726 101125 101124 111948 104734 108346 39810 21737 97519 93909 90304 93912 83118 75896 79498 83102 65092 61483 65086 65076 68690 68680 65078 57869 61494 36192 39825 36200 32591 28970 25358 25322 21718 21722 18105 32570 36173 65078 61475 50653 57867 54258 57863 54258 47046 50649 54250 50648 57855 54250 47042 50651 32573 32571 32574 36140 32572 32573 36054 32445 25240 28847 14422 10817 14417 18021 18022 18020 18141 14538 36174 32570 36174 25338 21731 18021 10817 14424 18019 0 3602 101115 97510 90311 86702 75903 72296 83100 79497 72299 68693 25353 21745 18131 14527 18022 14418 21724 18120 28939 25337 32540 28938 43349 39742 32538 28932 43259 39656 43395 25322 28928 18163 21777 65086 68700 122823 122825 7259 14532 21829 21803 39787 7285 39790 39791 36188 39779
65078 57873 50661 68706 115608 122832 126448 7320 18027 10868 7263 97520 39834 54270 111994 115622 18147 14518 14529 75954 79557 65107 65083 104728 108443 57884 54271 36191 25366 25242 3613 14538 25358 14495 14484 119229 3653 65092 68688 72328 3649 79559 83172 14531 21740 36218 21770 39834 21759 21735 47040 21759 32605 21754 21759 43436 32613 21738 47040 25388 39824 21757 18158 36219 28997 21762 83208 28969 68684 75914 65113 65114 65115 75903 72299 72348 68722 57874 61493 108391 104755 108357 111947 119232 119214 108343 101126 104733 97523 101125 104739 101126 101126 101126 97519 97510 97517 122748 108332 119231 119228 111938 111936 119147 115541 122751 119146 101126 104745 108333 104735 101124 97523 97522 108346 101132 104744 36208 18135 93917 90307 86702 90310 79516 72294 75896 79500 61490 57881 61484 61474 65088 65078 61476 54267 57892 32590 36223 32598 28989 25368 21756 21720 18116 18120 14503 28968 32571 61476 57873 47051 54265 50656 54261 50656 43444 47047 50648 47046 54253 50648 43440 47049 28971 28969 28972 32538 28970 28971 32452 28843 21638 25245 10820 7215 10815 14419 14420 14418 14539 10936 32572 28968 32572 21736 18129 14419 7215 10822 14417 3602 0 97513 93908 86709 83100 72301 68694 79498 75895 68697 65091 21751 18143 14529 10925 14420 10816 18122 14518 25337 21735 28938 25336 39747 36140 28936 25330 39657 36054 39793 21720 25326 14561 18175 61484 65098 119221 119223 3657 10930 18227 18201 36185 3683 36188 36189 32586 36177
61269 54064 46852 64897 25305 32529 36145 97535 97504 86645 90250 7218 57679 68502 21691 25319 82971 82995 82984 57699 61302 46852 50477 14426 18140 39629 43242 64892 90190 97485 101126 104753 115573 83018 83029 28926 93868 54063 54082 57722 93864 61304 64917 82982 75777 82955 79365 86571 79359 75778 93777 75754 79342 75759 75758 90173 79350 75775 93777 72125 86561 75756 79399 82956 75734 79382 64953 119184 64875 61308 46858 46859 46860 61297 57693 54093 50467 46875 43238 18088 14452 18054 21645 28929 28911 18041 10823 14430 7221 10823 14437 10824 10824 10823 7216 7207 7214 32446 18030 28928 28925 21636 21634 28845 25239 32449 28844 10824 14443 18031 14433 10822 7227 7220 18050 10836 14448 82945 79378 10816 7206 10811 14419 25243 25219 21623 18013 50461 46852 50455 57665 54059 57679 57667 50458 54083 64923 61290 72133 68524 90192 86580 90243 86639 86643 83026 119183 122786 50477 54085 50462 50456 54066 57671 64888 54069 64878 61273 57671 64878 61273 61285 64894 93795 93793 93796 97398 93794 93795 104695 101086 101089 104696 108333 104728 104716 108320 101115 101113 104754 101151 122787 119183 122787 90281 86674 101112 104728 104717 101114 101115 97513 0 3605 18022 14413 32426 28819 25221 21618 36028 32422 111966 108358 104744 101140 108347 104743 93899 90295 93882 90280 97483 93881 104607 101000 97393 93796 108205 104602 68494 90243 93849 83016 86630 36029 39643 28918 28920 93872 93917 86682 108416 126400 93898 126403 126404 122801 126392
57664 50459 43247 61292 21700 28924 32540 93930 93899 83040 86645 3613 54074 64897 18086 21714 79366 79390 79379 54094 57697 43247 46872 10821 14535 36024 39637 61287 86585 93880 97521 101148 111968 79413 79424 25321 90263 50458 50477 54117 90259 57699 61312 79377 72172 79350 75760 82966 75754 72173 90172 72149 75737 72154 72153 86568 75745 72170 90172 68520 82956 72151 75794 79351 72129 75777 61348 115579 61270 57703 43253 43254 43255 57692 54088 50488 46862 43270 39633 14483 10847 14449 18040 25324 25306 14436 7218 10825 3616 7218 10832 7219 7219 7218 3611 3602 3609 28841 14425 25323 25320 18031 18029 25240 21634 28844 25239 7219 10838 14426 10828 7217 3622 3615 14445 7231 10843 79340 75773 7211 3601 7206 10814 21638 21614 18018 14408 46856 43247 46850 54060 50454 54074 54062 46853 50478 61318 57685 68528 64919 86587 82975 86638 83034 83038 79421 115578 119181 46872 50480 46857 46851 50461 54066 61283 50464 61273 57668 54066 61273 57668 57680 61289 90190 90188 90191 93793 90189 90190 101090 97481 97484 101091 104728 101123 101111 104715 97510 97508 101149 97546 119182 115578 119182 86676 83069 97507 101123 101112 97509 97510 93908 3605 0 14417 10808 28821 25214 21616 18013 32423 28817 108361 104753 101139 97535 104742 101138 90294 86690 90277 86675 93878 90276 101002 97395 93788 90191 104600 100997 64889 86638 90244 79411 83025 32424 36038 25313 25315 90267 90312 83077 104811 122795 90293 122798 122799 119196 122787
50465 43260 36048 54093 36117 43341 46957 86731 86700 75841 79446 18029 46875 57698 32503 36131 72167 72191 72180 46895 50498 36048 39673 25237 28952 28825 32438 54088 79386 86681 90322 93949 104769 72214 72225 39738 83064 43259 43278 46918 83060 50500 54113 72178 64973 72151 68561 75767 68555 64974 82973 64950 68538 64955 64954 79369 68546 64971 82973 61321 75757 64952 68595 72152 64930 68578 54149 108380 54071 50504 36054 36055 36056 50493 46889 43289 39663 36071 32434 28900 25264 28866 32456 39741 39723 28852 21635 25242 18032 21634 25248 21635 21635 21635 18028 18019 18026 43257 28841 39740 39737 32447 32445 39656 36050 43260 39655 21635 25254 28842 25244 21633 18032 18031 28855 21641 25253 72141 68574 14426 10816 7211 10819 14439 14415 10819 7209 39657 36048 39651 46861 43255 46875 46863 39654 43279 54119 50486 61329 57720 79388 75776 79439 75835 75839 72222 108379 111982 39673 43281 39658 39652 43262 46867 54084 43265 54074 50469 46867 54074 50469 50481 54090 82991 82989 82992 86594 82990 82991 93891 90282 90285 93892 97529 93924 93912 97516 90311 90309 93950 90347 111983 108379 111983 79477 75870 90308 93924 93913 90310 90311 86709 18022 14417 0 3609 21622 18015 14417 10814 25224 21618 101162 97554 93940 90336 97543 93939 83095 79491 83078 79476 86679 83077 93803 90196 86589 82992 97401 93798 57690 79439 83045 72212 75826 25225 28839 39730 39732 83068 83113 75878 97612 115596 83094 115599 115600 111997 115588
46856 39651 32439 50484 32508 39732 43348 83122 83091 72232 75837 14420 43266 54089 28894 32522 68558 68582 68571 43286 46889 32439 36064 21628 25343 25216 28829 50479 75777 83072 86713 90340 101160 68605 68616 36129 79455 39650 39669 43309 79451 46891 50504 68569 61364 68542 64952 72158 64946 61365 79364 61341 64929 61346 61345 75760 64937 61362 79364 57712 72148 61343 64986 68543 61321 64969 50540 104771 50462 46895 32445 32446 32447 46884 43280 39680 36054 32462 28825 25291 21655 25257 28847 36132 36114 25243 18026 21633 14423 18025 21639 18026 18026 18026 14419 14410 14417 39648 25232 36131 36128 28838 28836 36047 32441 39651 36046 18026 21645 25233 21635 18024 14423 14422 25246 18032 21644 68532 64965 10817 7207 3602 7210 10830 10806 7210 3600 36048 32439 36042 43252 39646 43266 43254 36045 39670 50510 46877 57720 54111 75779 72167 75830 72226 72230 68613 104770 108373 36064 39672 36049 36043 39653 43258 50475 39656 50465 46860 43258 50465 46860 46872 50481 79382 79380 79383 82985 79381 79382 90282 86673 86676 90283 93920 90315 90303 93907 86702 86700 90341 86738 108374 104770 108374 75868 72261 86699 90315 90304 86701 86702 83100 14413 10808 3609 0 18013 14406 10808 7205 21615 18009 97553 93945 90331 86727 93934 90330 79486 75882 79469 75867 83070 79468 90194 86587 82980 79383 93792 90189 54081 75830 79436 68603 72217 21616 25230 36121 36123 79459 79504 72269 94003 111987 79485 111990 111991 108388 111979
36057 28852 21640 39685 50521 57745 61361 72323 72292 61433 65038 32433 32467 43290 46907 50535 57759 57783 57772 32487 36090 21640 25265 39641 43356 14417 18030 39680 64978 72273 75914 79541 90361 57806 57817 54142 68656 28851 28870 32510 68652 36092 39705 57770 50565 57743 54153 61359 54147 50566 68565 50542 54130 50547 50546 64961 54138 50563 68565 46913 61349 50544 54187 57744 50522 54170 39741 93972 39663 36096 21646 21647 21648 36085 32481 28881 25255 21663 18026 43304 39668 43270 46860 54145 54127 43256 36039 39646 32436 36038 39652 36039 36039 36039 32432 32423 32430 57661 43245 54144 54141 46851 46849 54060 50454 57664 54059 36039 39658 43246 39648 36037 32436 32435 43259 36045 39657 57733 54166 28830 25220 21615 25223 14429 7207 10809 14413 25249 21640 25243 32453 28847 32467 32455 25246 28871 39711 36078 46921 43312 64980 61368 65031 61427 61431 57814 93971 97574 25265 28873 25250 25244 28854 32459 39676 28857 39666 36061 32459 39666 36061 36073 39682 68583 68581 68584 72186 68582 68583 79483 75874 75877 79484 83121 79516 79504 83108 75903 75901 79542 75939 97575 93971 97575 65069 61462 75900 79516 79505 75902 75903 72301 32426 28821 21622 18013 0 3607 14411 10808 10816 7210 86754 83146 79532 75928 83135 79531 68687 65083 68670 65068 72271 68669 79395 75788 72181 68584 82993 79390 43282 65031 68637 57804 61418 10817 14431 54134 54136 68660 68705 61470 83204 101188 68686 101191 101192 97589 101180
32450 25245 18033 36078 46914 54138 57754 68716 68685 57826 61431 28826 28860 39683 43300 46928 54152 54176 54165 28880 32483 18033 21658 36034 39749 10810 14423 36073 61371 68666 72307 75934 86754 54199 54210 50535 65049 25244 25263 28903 65045 32485 36098 54163 46958 54136 50546 57752 50540 46959 64958 46935 50523 46940 46939 61354 50531 46956 64958 43306 57742 46937 50580 54137 46915 50563 36134 90365 36056 32489 18039 18040 18041 32478 28874 25274 21648 18056 14419 39697 36061 39663 43253 50538 50520 39649 32432 36039 28829 32431 36045 32432 32432 32432 28825 28816 28823 54054 39638 50537 50534 43244 43242 50453 46847 54057 50452 32432 36051 39639 36041 32430 28829 28828 39652 32438 36050 54126 50559 25223 21613 18008 21616 10822 3600 7202 10806 21642 18033 21636 28846 25240 28860 28848 21639 25264 36104 32471 43314 39705 61373 57761 61424 57820 57824 54207 90364 93967 21658 25266 21643 21637 25247 28852 36069 25250 36059 32454 28852 36059 32454 32466 36075 64976 64974 64977 68579 64975 64976 75876 72267 72270 75877 79514 75909 75897 79501 72296 72294 75935 72332 93968 90364 93968 61462 57855 72293 75909 75898 72295 72296 68694 28819 25214 18015 14406 3607 0 10804 7201 7209 3603 83147 79539 75925 72321 79528 75924 65080 61476 65063 61461 68664 65062 75788 72181 68574 64977 79386 75783 39675 61424 65030 54197 57811 7210 10824 50527 50529 65053 65098 57863 79597 97581 65079 97584 97585 93982 97573
43254 36049 28837 46882 43316 50540 54156 79520 79489 68630 72235 25228 39664 50487 39702 43330 64956 64980 64969 39684 43287 28837 32462 32436 36151 21614 25227 46877 72175 79470 83111 86738 97558 65003 65014 46937 75853 36048 36067 39707 75849 43289 46902 64967 57762 64940 61350 68556 61344 57763 75762 57739 61327 57744 57743 72158 61335 57760 75762 54110 68546 57741 61384 64941 57719 61367 46938 101169 46860 43293 28843 28844 28845 43282 39678 36078 32452 28860 25223 36099 32463 36065 39655 46940 46922 36051 28834 32441 25231 28833 32447 28834 28834 28834 25227 25218 25225 50456 36040 46939 46936 39646 39644 46855 43249 50459 46854 28834 32453 36041 32443 28832 25231 25230 36054 28840 32452 64930 61363 21625 18015 14410 18018 14426 7204 10806 7208 32446 28837 32440 39650 36044 39664 39652 32443 36068 46908 43275 54118 50509 72177 68565 72228 68624 68628 65011 101168 104771 32462 36070 32447 32441 36051 39656 46873 36054 46863 43258 39656 46863 43258 43270 46879 75780 75778 75781 79383 75779 75780 86680 83071 83074 86681 90318 86713 86701 90305 83100 83098 86739 83136 104772 101168 104772 72266 68659 83097 86713 86702 83099 83100 79498 25221 21616 14417 10808 14411 10804 0 3603 18013 14407 93951 90343 86729 83125 90332 86728 75884 72280 75867 72265 79468 75866 86592 82985 79378 75781 90190 86587 50479 72228 75834 65001 68615 18014 21628 46929 46931 75857 75902 68667 90401 108385 75883 108388 108389 104786 108377
39651 32446 25234 43279 39713 46937 50553 75917 75886 65027 68632 21625 36061 46884 36099 39727 61353 61377 61366 36081 39684 25234 28859 28833 32548 18011 21624 43274 68572 75867 79508 83135 93955 61400 61411 43334 72250 32445 32464 36104 72246 39686 43299 61364 54159 61337 57747 64953 57741 54160 72159 54136 57724 54141 54140 68555 57732 54157 72159 50507 64943 54138 57781 61338 54116 57764 43335 97566 43257 39690 25240 25241 25242 39679 36075 32475 28849 25257 21620 32496 28860 32462 36052 43337 43319 32448 25231 28838 21628 25230 28844 25231 25231 25231 21624 21615 21622 46853 32437 43336 43333 36043 36041 43252 39646 46856 43251 25231 28850 32438 28840 25229 21628 21627 32451 25237 28849 61327 57760 18022 14412 10807 14415 10823 3601 7203 3605 28843 25234 28837 36047 32441 36061 36049 28840 32465 43305 39672 50515 46906 68574 64962 68625 65021 65025 61408 97565 101168 28859 32467 28844 28838 32448 36053 43270 32451 43260 39655 36053 43260 39655 39667 43276 72177 72175 72178 75780 72176 72177 83077 79468 79471 83078 86715 83110 83098 86702 79497 79495 83136 79533 101169 97565 101169 68663 65056 79494 83110 83099 79496 79497 75895 21618 18013 10814 7205 10808 7201 3603 0 14410 10804 90348 86740 83126 79522 86729 83125 72281 68677 72264 68662 75865 72263 82989 79382 75775 72178 86587 82984 46876 68625 72231 61398 65012 14411 18025 43326 43328 72254 72299 65064 86798 104782 72280 104785 104786 101183 104774
32453 25248 18036 36081 54123 61347 64963 68719 68688 57829 61434 36035 28863 39686 50509 54137 54155 54179 54168 28883 32486 18036 21661 43243 46958 10813 14426 36076 61374 68669 72310 75937 86757 54202 54213 57744 65052 25247 25266 28906 65048 32488 36101 54166 46961 54139 50549 57755 50543 46962 64961 46938 50526 46943 46942 61357 50534 46959 64961 43309 57745 46940 50583 54140 46918 50566 36137 90368 36059 32492 18042 18043 18044 32481 28877 25277 21651 18059 14422 46906 43270 46872 50462 57747 57729 46858 39641 43248 36038 39640 43254 39641 39641 39641 36034 36025 36032 61263 46847 57746 57743 50453 50451 57662 54056 61266 57661 39641 43260 46848 43250 39639 36038 36037 46861 39647 43259 54129 50562 32432 28822 25217 28825 18031 10809 14411 18015 21645 18036 21639 28849 25243 28863 28851 21642 25267 36107 32474 43317 39708 61376 57764 61427 57823 57827 54210 90367 93970 21661 25269 21646 21640 25250 28855 36072 25253 36062 32457 28855 36062 32457 32469 36078 64979 64977 64980 68582 64978 64979 75879 72270 72273 75880 79517 75912 75900 79504 72299 72297 75938 72335 93971 90367 93971 61465 57858 72296 75912 75901 72298 72299 68697 36028 32423 25224 21615 10816 7209 18013 14410 0 3606 83150 79542 75928 72324 79531 75927 65083 61479 65066 61464 68667 65065 75791 72184 68577 64980 79389 75786 39678 61427 65033 54200 57814 7213 10827 57736 57738 65056 65101 57866 79600 97584 65082 97587 97588 93985 97576
28847 21642 14430 32475 50517 57741 61357 65113 65082 54223 57828 32429 25257 36080 46903 50531 50549 50573 50562 25277 28880 14430 18055 39637 43352 7207 10820 32470 57768 65063 68704 72331 83151 50596 50607 54138 61446 21641 21660 25300 61442 28882 32495 50560 43355 50533 46943 54149 46937 43356 61355 43332 46920 43337 43336 57751 46928 43353 61355 39703 54139 43334 46977 50534 43312 46960 32531 86762 32453 28886 14436 14437 14438 28875 25271 21671 18045 14453 10816 43300 39664 43266 46856 54141 54123 43252 36035 39642 32432 36034 39648 36035 36035 36035 32428 32419 32426 57657 43241 54140 54137 46847 46845 54056 50450 57660 54055 36035 39654 43242 39644 36033 32432 32431 43255 36041 39653 50523 46956 28826 25216 21611 25219 14425 7203 10805 14409 18039 14430 18033 25243 21637 25257 25245 18036 21661 32501 28868 39711 36102 57770 54158 57821 54217 54221 50604 86761 90364 18055 21663 18040 18034 21644 25249 32466 21647 32456 28851 25249 32456 28851 28863 32472 61373 61371 61374 64976 61372 61373 72273 68664 68667 72274 75911 72306 72294 75898 68693 68691 72332 68729 90365 86761 90365 57859 54252 68690 72306 72295 68692 68693 65091 32422 28817 21618 18009 7210 3603 14407 10804 3606 0 79544 75936 72322 68718 75925 72321 61477 57873 61460 57858 65061 61459 72185 68578 64971 61374 75783 72180 36072 57821 61427 50594 54208 3607 7221 54130 54132 61450 61495 54260 75994 93978 61476 93981 93982 90379 93970
79531 72326 65114 83159 130061 137285 140901 14431 36180 25321 21716 111973 54287 68723 126447 130075 32600 28971 28982 90407 94010 79560 79536 119181 122896 72337 68724 50644 39819 43393 25364 7213 3607 28948 28937 133682 18098 79545 83141 86781 18102 94012 97625 28984 36193 50671 36223 54287 36212 36188 61493 36212 47058 36207 36212 57889 47066 36191 61493 39841 54277 36210 32611 50672 43450 36215 97661 7218 83137 90367 79566 79567 79568 90356 86752 86801 83175 72327 75946 122844 119208 122810 126400 133685 133667 122796 115579 119186 111976 115578 119192 115579 115579 115579 111972 111963 111970 137201 122785 133684 133681 126391 126389 133600 129994 137204 133599 115579 119198 122786 119188 115577 111976 111975 122799 115585 119197 50661 32588 108370 104760 101155 104763 93969 86747 90349 93953 75943 72334 75937 75927 79541 79531 75929 68720 72345 47043 50676 47051 43442 39821 36209 36173 32569 32573 28956 7217 10820 75929 72326 61504 68718 65109 68714 65109 57897 61500 65101 61499 68706 65101 57893 61502 43424 43422 43425 46991 43423 43424 50603 46994 39791 43398 28845 25240 32566 36170 36171 36169 14418 10815 10821 7217 10821 36189 32582 36170 28966 32573 36168 25353 21751 111966 108361 101162 97553 86754 83147 93951 90348 83150 79544 0 3608 21640 18036 25243 21639 32575 28971 39790 36188 43391 39789 54200 50593 43389 39783 57798 54195 54246 36173 39779 29014 32628 75937 79551 133674 133676 18094 25383 32680 10876 14434 18128 14437 14438 10835 14426
75923 68718 61506 79551 126453 133677 137293 10823 32572 21713 18108 108365 50679 65115 122839 126467 28992 25363 25374 86799 90402 75952 75928 115573 119288 68729 65116 47036 36211 39785 21756 3605 7215 25340 25329 130074 14490 75937 79533 83173 14494 90404 94017 25376 32585 47063 32615 50679 32604 32580 57885 32604 43450 32599 32604 54281 43458 32583 57885 36233 50669 32602 29003 47064 39842 32607 94053 10826 79529 86759 75958 75959 75960 86748 83144 83193 79567 68719 72338 119236 115600 119202 122792 130077 130059 119188 111971 115578 108368 111970 115584 111971 111971 111971 108364 108355 108362 133593 119177 130076 130073 122783 122781 129992 126386 133596 129991 111971 115590 119178 115580 111969 108368 108367 119191 111977 115589 47053 28980 104762 101152 97547 101155 90361 83139 86741 90345 72335 68726 72329 72319 75933 75923 72321 65112 68737 43435 47068 43443 39834 36213 32601 32565 28961 28965 25348 10825 14428 72321 68718 57896 65110 61501 65106 61501 54289 57892 61493 57891 65098 61493 54285 57894 39816 39814 39817 43383 39815 39816 46995 43386 36183 39790 25237 21632 28958 32562 32563 32561 10810 7207 14429 10825 14429 32581 28974 32562 25358 28965 32560 21745 18143 108358 104753 97554 93945 83146 79539 90343 86740 79542 75936 3608 0 18032 14428 21635 18031 28967 25363 36182 32580 39783 36181 50592 46985 39781 36175 54190 50587 50638 32565 36171 25406 29020 72329 75943 130066 130068 14486 21775 29072 7268 18042 14520 18045 18046 14443 18034
72309 65104 57892 75937 122839 130063 133679 7209 28824 18099 14494 104751 47065 61501 119225 122853 25378 21749 21760 83185 86788 72338 72314 111959 115674 65115 61502 43422 32597 36039 14410 14427 25247 21726 21715 126460 10876 72323 75919 79559 10880 86790 90403 21762 28971 43449 29001 47065 28990 28966 54271 28990 39836 28985 28990 50667 39844 28969 54271 32619 47055 28988 25389 43450 36228 28993 90439 28858 75915 83145 72344 72345 72346 83134 79530 79579 75953 65105 68724 115622 111986 115588 119178 126463 126445 115574 108357 111964 104754 108356 111970 108357 108357 108357 104750 104741 104748 129979 115563 126462 126459 119169 119167 126378 122772 129982 126377 108357 111976 115564 111966 108355 104754 104753 115577 108363 111975 43439 25366 101148 97538 93933 97541 86747 79525 83127 86731 68721 65112 68715 68705 72319 72309 68707 61498 65123 39821 43454 39829 36220 32599 28987 28951 25347 25351 21734 28857 32460 68707 65104 54282 61496 57887 61492 57887 50675 54278 57879 54277 61484 57879 50671 54280 36202 36200 36203 39769 36201 36202 43249 39640 32435 36042 14413 10808 21612 25216 25217 25215 14428 10825 32461 28857 32461 28967 25360 25216 18012 21619 25214 18131 14529 104744 101139 93940 90331 79532 75925 86729 83126 75928 72322 21640 18032 0 3604 10811 7207 25353 21749 32568 28966 36169 32567 46978 43371 36167 32561 50454 46851 47024 28951 32557 21792 25406 68715 72329 126452 126454 10872 18161 25458 18090 36074 10906 36077 36078 32475 36066
68705 61500 54288 72333 119235 126459 130075 3605 25220 14495 10890 101147 43461 57897 115621 119249 21774 18145 18156 79581 83184 68734 68710 108355 112070 61511 57898 39818 28993 32435 10806 10823 21643 18122 18111 122856 7272 68719 72315 75955 7276 83186 86799 18158 25367 39845 25397 43461 25386 25362 50667 25386 36232 25381 25386 47063 36240 25365 50667 29015 43451 25384 21785 39846 32624 25389 86835 25254 72311 79541 68740 68741 68742 79530 75926 75975 72349 61501 65120 112018 108382 111984 115574 122859 122841 111970 104753 108360 101150 104752 108366 104753 104753 104753 101146 101137 101144 126375 111959 122858 122855 115565 115563 122774 119168 126378 122773 104753 108372 111960 108362 104751 101150 101149 111973 104759 108371 39835 21762 97544 93934 90329 93937 83143 75921 79523 83127 65117 61508 65111 65101 68715 68705 65103 57894 61519 36217 39850 36225 32616 28995 25383 25347 21743 21747 18130 25253 28856 65103 61500 50678 57892 54283 57888 54283 47071 50674 54275 50673 57880 54275 47067 50676 32598 32596 32599 36165 32597 32598 39645 36036 28831 32438 10809 7204 18008 21612 21613 21611 10824 7221 28857 25253 28857 25363 21756 21612 14408 18015 21610 14527 10925 101140 97535 90336 86727 75928 72321 83125 79522 72324 68718 18036 14428 3604 0 7207 3603 21749 18145 28964 25362 32565 28963 43374 39767 32563 28957 46850 43247 43420 25347 28953 18188 21802 65111 68725 122848 122850 7268 14557 21854 14486 32470 7302 32473 32474 28871 32462
75912 68707 61495 79540 126442 133666 137282 10812 25221 21702 18097 108354 50668 65104 122828 126456 28981 25352 25363 86788 90391 75941 75917 115562 119277 68718 65105 47025 36200 32436 10807 18030 28850 25329 25318 130063 14479 75926 79522 83162 14483 90393 94006 25365 32574 47052 32604 50668 32593 32569 57874 32593 43439 32588 32593 54270 43447 32572 57874 36222 50658 32591 28992 47053 39831 32596 94042 32461 79518 86748 75947 75948 75949 86737 83133 83182 79556 68708 72327 119225 115589 119191 122781 130066 130048 119177 111960 115567 108357 111959 115573 111960 111960 111960 108353 108344 108351 133582 119166 130065 130062 122772 122770 129981 126375 133585 129980 111960 115579 119167 115569 111958 108357 108356 119180 111966 115578 47042 28969 104751 101141 97536 101144 90350 83128 86730 90334 72324 68715 72318 72308 75922 75912 72310 65101 68726 43424 47057 43432 39823 36202 32590 32554 28950 28954 25337 32460 36063 72310 68707 57885 65099 61490 65095 61490 54278 57881 61482 57880 65087 61482 54274 57883 39805 39803 39806 43372 39804 39805 39646 36037 28832 32439 10810 7205 18009 21613 21614 21612 18031 14428 36064 32460 36064 32570 28963 21613 14409 18016 21611 18022 14420 108347 104742 97543 93934 83135 79528 90332 86729 79531 75925 25243 21635 10811 7207 0 3604 28826 25352 36171 32569 39642 36040 50457 46850 39770 36164 46851 43248 50627 32554 36160 25395 29009 72318 75932 130055 130057 14475 21764 29061 21693 39677 14509 39680 39681 36078 39669
72308 65103 57891 75936 122838 130062 133678 7208 21617 18098 14493 104750 47064 61500 119224 122852 25377 21748 21759 83184 86787 72337 72313 111958 115673 65114 61501 43421 32596 28832 7203 14426 25246 21725 21714 126459 10875 72322 75918 79558 10879 86789 90402 21761 28970 43448 29000 47064 28989 28965 54270 28989 39835 28984 28989 50666 39843 28968 54270 32618 47054 28987 25388 43449 36227 28992 90438 28857 75914 83144 72343 72344 72345 83133 79529 79578 75952 65104 68723 115621 111985 115587 119177 126462 126444 115573 108356 111963 104753 108355 111969 108356 108356 108356 104749 104740 104747 129978 115562 126461 126458 119168 119166 126377 122771 129981 126376 108356 111975 115563 111965 108354 104753 104752 115576 108362 111974 43438 25365 101147 97537 93932 97540 86746 79524 83126 86730 68720 65111 68714 68704 72318 72308 68706 61497 65122 39820 43453 39828 36219 32598 28986 28950 25346 25350 21733 28856 32459 68706 65103 54281 61495 57886 61491 57886 50674 54277 57878 54276 61483 57878 50670 54279 36201 36199 36202 39768 36200 36201 36042 32433 25228 28835 7206 3601 14405 18009 18010 18008 14427 10824 32460 28856 32460 28966 25359 18009 10805 14412 18007 14418 10816 104743 101138 93939 90330 79531 75924 86728 83125 75927 72321 21639 18031 7207 3603 3604 0 25222 21748 32567 28965 36038 32436 46853 43246 36166 32560 43247 39644 47023 28950 32556 21791 25405 68714 72328 126451 126453 10871 18160 25457 18089 36073 10905 36076 36077 32474 36065
61464 54259 47047 65092 111994 119218 122834 18144 3605 7254 10859 93906 36220 50656 108380 112008 14533 10904 10915 72340 75943 61493 61469 101114 104829 54270 50657 32577 21752 10820 18019 25362 36182 10881 10870 115615 14477 61478 65074 68714 14473 75945 79558 10917 18126 32604 18156 36220 18145 18121 43426 18145 28991 18140 18145 39822 28999 18124 43426 21774 36210 18143 14544 32605 25383 18148 79594 39793 65070 72300 61499 61500 61501 72289 68685 68734 65108 54260 57879 104777 101141 104743 108333 115618 115600 104729 97512 101119 93909 97511 101125 97512 97512 97512 93905 93896 93903 119134 104718 115617 115614 108324 108322 115533 111927 119137 115532 97512 101131 104719 101121 97510 93909 93908 104732 97518 101130 32594 14521 90303 86693 83088 86696 75902 68680 72282 75886 57876 54267 57870 57860 61474 61464 57862 50653 54278 28976 32609 28984 25375 21754 18142 18106 14502 14506 10889 39792 43395 57862 54259 43437 50651 47042 50647 47042 39830 43433 47034 43432 50639 47034 39826 43435 25357 25355 25358 28836 25356 25357 18030 14421 7216 10823 25226 21621 10817 14421 7216 7214 25363 21760 43396 39792 43396 18122 14515 7213 14417 10818 7215 21724 18122 93899 90294 83095 79486 68687 65080 75884 72281 65083 61477 32575 28967 25353 21749 28826 25222 0 3604 21627 18025 18026 14424 28841 25234 25322 21716 25235 21632 36179 18106 21712 10947 14561 57870 61484 115607 115609 14481 14526 14613 29025 47009 14507 47012 47013 43410 47001
57860 50655 43443 61488 108390 115614 119230 14540 7209 3650 7255 90302 32616 47052 104776 108404 10929 7300 7311 68736 72339 57889 57865 97510 101225 50666 47053 28973 18148 14424 18131 21758 32578 7277 7266 112011 10873 57874 61470 65110 10869 72341 75954 7313 14522 29000 14552 32616 14541 14517 39822 14541 25387 14536 14541 36218 25395 14520 39822 18170 32606 14539 10940 29001 21779 14544 75990 36189 61466 68696 57895 57896 57897 68685 65081 65130 61504 50656 54275 101173 97537 101139 104729 112014 111996 101125 93908 97515 90305 93907 97521 93908 93908 93908 90301 90292 90299 115530 101114 112013 112010 104720 104718 111929 108323 115533 111928 93908 97527 101115 97517 93906 90305 90304 101128 93914 97526 28990 10917 86699 83089 79484 83092 72298 65076 68678 72282 54272 50663 54266 54256 57870 57860 54258 47049 50674 25372 29005 25380 21771 18150 14538 14502 10898 10902 7285 36188 39791 54258 50655 39833 47047 43438 47043 43438 36226 39829 43430 39828 47035 43430 36222 39831 21753 21751 21754 25320 21752 21753 21634 18025 10820 14427 25338 21733 14421 18025 10820 10818 21759 18156 39792 36188 39792 14518 10911 10817 18021 14422 10819 18120 14518 90295 86690 79491 75882 65083 61476 72280 68677 61479 57873 28971 25363 21749 18145 25352 21748 3604 0 18119 14517 21630 18028 32445 28838 21718 18112 28839 25236 32575 14502 18108 7343 10957 54266 57880 112003 112005 10877 10922 11009 25421 43405 10903 43408 43409 39806 43397
61447 54242 47030 65075 111977 119201 122817 25359 18022 14469 18074 93889 36203 50639 108363 111991 14516 10887 10898 72323 75926 61476 61452 101097 104812 54253 50640 32560 21735 10807 28950 32577 43397 10864 10853 115598 21692 61461 65057 68697 21688 75928 79541 10900 18109 32587 18139 36203 18128 18104 43409 18128 28974 18123 18128 39805 28982 18107 43409 21757 36193 18126 14527 32588 25366 18131 79577 47008 65053 72283 61482 61483 61484 72272 68668 68717 65091 54243 57862 104760 101124 104726 108316 115601 115583 104712 97495 101102 93892 97494 101108 97495 97495 97495 93888 93879 93886 119117 104701 115600 115597 108307 108305 115516 111910 119120 115515 97495 101114 104702 101104 97493 93892 93891 104715 97501 101113 32577 14504 90286 86676 83071 86679 75885 68663 72265 75869 57859 54250 57853 57843 61457 61447 57845 50636 54261 28959 32592 28967 25358 21737 18125 18089 14485 14489 10872 47007 50610 57845 54242 43420 50634 47025 50630 47025 39813 43416 47017 43415 50622 47017 39809 43418 25340 25338 25341 28823 25339 25340 18017 14408 14411 18018 36157 32552 25234 28838 21633 21631 32578 28975 50611 47007 50611 10815 7208 21630 28834 25235 21632 28939 25337 93882 90277 83078 79469 68670 65063 75867 72264 65066 61460 39790 36182 32568 28964 36171 32567 21627 18119 0 3602 10805 7203 28828 25221 25305 21699 25222 21619 36162 18089 21695 10930 14544 57853 61467 115590 115592 21696 21741 14596 36240 54224 21722 54227 54228 50625 54216
57845 50640 43428 61473 108375 115599 119215 21757 14420 10867 14472 90287 32601 47037 104761 108389 10914 7285 7296 68721 72324 57874 57850 97495 101210 50651 47038 28958 18133 7205 25348 28975 39795 7262 7251 111996 18090 57859 61455 65095 18086 72326 75939 7298 14507 28985 14537 32601 14526 14502 39807 14526 25372 14521 14526 36203 25380 14505 39807 18155 32591 14524 10925 28986 21764 14529 75975 43406 61451 68681 57880 57881 57882 68670 65066 65115 61489 50641 54260 101158 97522 101124 104714 111999 111981 101110 93893 97500 90290 93892 97506 93893 93893 93893 90286 90277 90284 115515 101099 111998 111995 104705 104703 111914 108308 115518 111913 93893 97512 101100 97502 93891 90290 90289 101113 93899 97511 28975 10902 86684 83074 79469 83077 72283 65061 68663 72267 54257 50648 54251 54241 57855 57845 54243 47034 50659 25357 28990 25365 21756 18135 14523 14487 10883 10887 7270 43405 47008 54243 50640 39818 47032 43423 47028 43423 36211 39814 43415 39813 47020 43415 36207 39816 21738 21736 21739 25221 21737 21738 14415 10806 10809 14416 32555 28950 21632 25236 18031 18029 28976 25373 47009 43405 47009 7213 3606 18028 25232 21633 18030 25337 21735 90280 86675 79476 75867 65068 61461 72265 68662 61464 57858 36188 32580 28966 25362 32569 28965 18025 14517 3602 0 7203 3601 25226 21619 21703 18097 21620 18017 32560 14487 18093 7328 10942 54251 57865 111988 111990 18094 18139 10994 32638 50622 18120 50625 50626 47023 50614
65048 57843 50631 68676 115578 122802 126418 28960 14421 18070 21675 97490 39804 54240 111964 115592 18117 14488 14499 75924 79527 65077 65053 104698 108413 57854 54241 36161 25336 7206 28835 36178 46998 14465 14454 119199 25293 65062 68658 72298 25289 79529 83142 14501 21710 36188 21740 39804 21729 21705 47010 21729 32575 21724 21729 43406 32583 21708 47010 25358 39794 21727 18128 36189 28967 21732 83178 50609 68654 75884 65083 65084 65085 75873 72269 72318 68692 57844 61463 108361 104725 108327 111917 119202 119184 108313 101096 104703 97493 101095 104709 101096 101096 101096 97489 97480 97487 122718 108302 119201 119198 111908 111906 119117 115511 122721 119116 101096 104715 108303 104705 101094 97493 97492 108316 101102 104714 36178 18105 93887 90277 86672 90280 79486 72264 75866 79470 61460 57851 61454 61444 65058 65048 61446 54237 57862 32560 36193 32568 28959 25338 21726 21690 18086 18090 14473 50608 54211 61446 57843 47021 54235 50626 54231 50626 43414 47017 50618 47016 54223 50618 43410 47019 28827 28827 28826 25222 28826 28825 14416 10807 10810 14417 36042 32437 21633 25237 18032 18030 36179 32576 54212 50608 54212 14416 10809 18029 25233 21634 18031 32540 28938 97483 93878 86679 83070 72271 68664 79468 75865 68667 65061 43391 39783 36169 32565 39642 36038 18026 21630 10805 7203 0 3602 25227 21620 28824 25300 21621 18018 39763 21690 25296 14531 18145 61454 65068 119191 119193 25297 25342 18197 39841 57825 25323 57828 57829 54226 57817
61446 54241 47029 65074 111976 119200 122816 25358 10819 14468 18073 93888 36202 50638 108362 111990 14515 10886 10897 72322 75925 61475 61451 101096 104811 54252 50639 32559 21734 3604 25233 32576 43396 10863 10852 115597 21691 61460 65056 68696 21687 75927 79540 10899 18108 32586 18138 36202 18127 18103 43408 18127 28973 18122 18127 39804 28981 18106 43408 21756 36192 18125 14526 32587 25365 18130 79576 47007 65052 72282 61481 61482 61483 72271 68667 68716 65090 54242 57861 104759 101123 104725 108315 115600 115582 104711 97494 101101 93891 97493 101107 97494 97494 97494 93887 93878 93885 119116 104700 115599 115596 108306 108304 115515 111909 119119 115514 97494 101113 104701 101103 97492 93891 93890 104714 97500 101112 32576 14503 90285 86675 83070 86678 75884 68662 72264 75868 57858 54249 57852 57842 61456 61446 57844 50635 54260 28958 32591 28966 25357 21736 18124 18088 14484 14488 10871 47006 50609 57844 54241 43419 50633 47024 50629 47024 39812 43415 47016 43414 50621 47016 39808 43417 25225 25225 25224 21620 25224 25223 10814 7205 7208 10815 32440 28835 18031 21635 14430 14428 32577 28974 50610 47006 50610 10814 7207 14427 21631 18032 14429 28938 25336 93881 90276 83077 79468 68669 65062 75866 72263 65065 61459 39789 36181 32567 28963 36040 32436 14424 18028 7203 3601 3602 0 21625 18018 25222 21698 18019 14416 36161 18088 21694 10929 14543 57852 61466 115589 115591 21695 21740 14595 36239 54223 21721 54226 54227 50624 54215
72172 64967 57755 75800 122702 129926 133542 39769 25236 28879 32484 104614 46928 61364 119088 122716 21636 25265 25276 83048 86651 72201 72177 111822 115537 64978 61365 43285 14417 18021 39650 46987 57807 25252 25263 126323 36102 72186 75782 79422 36098 86653 90266 25278 28876 43312 28859 46928 25248 28877 54134 28853 39699 28858 28857 50530 39707 28874 54134 32482 46918 28855 28905 43313 36091 32481 90302 61418 75778 83008 72207 72208 72209 82997 79393 79442 75816 64968 68587 115485 111849 115451 119041 126326 126308 115437 108220 111827 104617 108219 111833 108220 108220 108220 104613 104604 104611 129842 115426 126325 126322 119032 119030 126241 122635 129845 126240 108220 111839 115427 111829 108218 104617 104616 115440 108226 111838 43302 28882 101011 97401 93796 97404 86610 79388 82990 86594 68584 64975 68578 68568 72182 72172 68570 61361 64986 39684 43317 39692 36083 21639 18027 25235 21631 28861 25244 61417 65020 68570 64967 54145 61359 57750 61355 57750 50538 54141 57742 54140 61347 57742 50534 54143 10814 10814 10813 7209 10813 10812 10811 14420 21625 25232 46857 43252 32448 36052 28847 28845 46988 43385 65021 61417 65021 32439 28832 28844 36048 32449 28846 43349 39747 104607 101002 93803 90194 79395 75788 86592 82989 75791 72185 54200 50592 46978 43374 50457 46853 28841 32445 28828 25226 25227 21625 0 3607 10811 14417 10812 7209 46887 18027 21633 25308 28922 68578 72192 126315 126317 36106 36151 28974 50650 68634 36132 68637 68638 65035 68626
68565 61360 54148 72193 119095 126319 129935 36162 21629 25272 28877 101007 43321 57757 115481 119109 18029 21658 21669 79441 83044 68594 68570 108215 111930 61371 57758 39678 10810 14414 36043 43380 54200 21645 21656 122716 32495 68579 72175 75815 32491 83046 86659 21671 25269 39705 25252 43321 21641 25270 50527 25246 36092 25251 25250 46923 36100 25267 50527 28875 43311 25248 25298 39706 32484 28874 86695 57811 72171 79401 68600 68601 68602 79390 75786 75835 72209 61361 64980 111878 108242 111844 115434 122719 122701 111830 104613 108220 101010 104612 108226 104613 104613 104613 101006 100997 101004 126235 111819 122718 122715 115425 115423 122634 119028 126238 122633 104613 108232 111820 108222 104611 101010 101009 111833 104619 108231 39695 25275 97404 93794 90189 93797 83003 75781 79383 82987 64977 61368 64971 64961 68575 68565 64963 57754 61379 36077 39710 36085 32476 18032 14420 21628 18024 25254 21637 57810 61413 64963 61360 50538 57752 54143 57748 54143 46931 50534 54135 50533 57740 54135 46927 50536 7207 7207 7206 3602 7206 7205 7204 10813 18018 21625 43250 39645 28841 32445 25240 25238 43381 39778 61414 57810 61414 28832 25225 25237 32441 28842 25239 39742 36140 101000 97395 90196 86587 75788 72181 82985 79382 72184 68578 50593 46985 43371 39767 46850 43246 25234 28838 25221 21619 21620 18018 3607 0 7204 10810 7205 3602 43280 14420 18026 21701 25315 64971 68585 122708 122710 32499 32544 25367 47043 65027 32525 65030 65031 61428 65019
64958 57753 50541 68586 115488 122712 126328 28958 28833 18068 21673 97400 39714 54150 111874 115502 14422 14464 14475 75834 79437 64987 64963 104608 108323 57764 54151 36071 7203 21618 32549 36176 46996 14441 14452 119109 25291 64972 68568 72208 25287 79439 83052 14477 21662 36098 21645 39714 18034 21663 46920 21639 32485 21644 21643 43316 32493 21660 46920 25268 39704 21641 18104 36099 28877 21708 83088 50607 68564 75794 64993 64994 64995 75783 72179 72228 68602 57754 61373 108271 104635 108237 111827 119112 119094 108223 101006 104613 97403 101005 104619 101006 101006 101006 97399 97390 97397 122628 108212 119111 119108 111818 111816 119027 115421 122631 119026 101006 104625 108213 104615 101004 97403 97402 108226 101012 104624 36088 18081 93797 90187 86582 90190 79396 72174 75776 79380 61370 57761 61364 61354 64968 64958 61356 54147 57772 32470 36103 32478 28869 14425 10813 14424 10820 18050 14433 50606 54209 61356 57753 46931 54145 50536 54141 50536 43324 46927 50528 46926 54133 50528 43320 46929 3602 3600 3603 3602 3601 3602 14408 18017 25222 28829 39756 36151 36045 39649 32444 32442 36177 32574 54210 50606 54210 21704 18097 32441 36151 36046 32443 32538 28936 97393 93788 86589 82980 72181 68574 79378 75775 68577 64971 43389 39781 36167 32563 39770 36166 25322 21718 25305 21703 28824 25222 10811 7204 0 3606 14409 10806 39673 7216 10822 14507 18121 61364 64978 119101 119103 25295 25340 18173 39839 57823 25321 57826 57827 54224 57815
61361 54156 46944 64989 111891 119115 122731 25352 25321 14462 18067 93803 36117 50553 108277 111905 10825 10858 10869 72237 75840 61390 61366 101011 104726 54167 50554 32474 3606 25224 28943 32570 43390 10835 10846 115512 21685 61375 64971 68611 21681 75842 79455 10871 18065 32501 18048 36117 14437 18066 43323 18042 28888 18047 18046 39719 28896 18063 43323 21671 36107 18044 14498 32502 25280 18102 79491 47001 64967 72197 61396 61397 61398 72186 68582 68631 65005 54157 57776 104674 101038 104640 108230 115515 115497 104626 97409 101016 93806 97408 101022 97409 97409 97409 93802 93793 93800 119031 104615 115514 115511 108221 108219 115430 111824 119034 115429 97409 101028 104616 101018 97407 93806 93805 104629 97415 101027 32491 14475 90200 86590 82985 86593 75799 68577 72179 75783 57773 54164 57767 57757 61371 61361 57759 50550 54175 28873 32506 28881 25272 10828 7216 10818 7214 14444 10827 47000 50603 57759 54156 43334 50548 46939 50544 46939 39727 43330 46931 43329 50536 46931 39723 43332 7208 7206 7209 7208 7207 7208 18014 21623 28828 32435 36150 32545 32533 36137 28932 28930 32571 28968 50604 47000 50604 18098 14491 28929 32545 32534 28931 28932 25330 93796 90191 82992 79383 68584 64977 75781 72178 64980 61374 39783 36175 32561 28957 36164 32560 21716 18112 21699 18097 25300 21698 14417 10810 3606 0 18015 14412 36076 3610 7216 10901 14515 57767 61381 115504 115506 21689 21734 14567 36233 54217 21715 54220 54221 50618 54209
75770 68565 61353 79398 126300 133524 137140 43367 21630 32477 36082 108212 50526 64962 122686 126314 25234 28863 28874 86646 90249 75799 75775 115420 119135 68576 64963 46883 18015 14415 36044 50585 61405 28850 28861 129921 39700 75784 79380 83020 39696 90251 93864 28876 32474 46910 32457 50526 28846 32475 57732 32451 43297 32456 32455 54128 43305 32472 57732 36080 50516 32453 32503 46911 39689 36079 93900 65016 79376 86606 75805 75806 75807 86595 82991 83040 79414 68566 72185 119083 115447 119049 122639 129924 129906 119035 111818 115425 108215 111817 115431 111818 111818 111818 108211 108202 108209 133440 119024 129923 129920 122630 122628 129839 126233 133443 129838 111818 115437 119025 115427 111816 108215 108214 119038 111824 115436 46900 32480 104609 100999 97394 101002 90208 82986 86588 90192 72182 68573 72176 72166 75780 75770 72168 64959 68584 43282 46915 43290 39681 25237 21625 28833 25229 32459 28842 65015 68618 72168 68565 57743 64957 61348 64953 61348 54136 57739 61340 57738 64945 61340 54132 57741 14412 14412 14411 10807 14411 14410 7205 10814 18019 21626 43251 39646 28842 32446 25241 25239 50586 46983 68619 65015 68619 28833 25226 25238 32442 28843 25240 43259 39657 108205 104600 97401 93792 82993 79386 90190 86587 79389 75783 57798 54190 50454 46850 46851 43247 25235 28839 25222 21620 21621 18019 10812 7205 14409 18015 0 3603 50485 21625 25231 28906 32520 72176 75790 129913 129915 39704 39749 32572 54248 72232 39730 72235 72236 68633 72224
72167 64962 57750 75795 122697 129921 133537 39764 18027 28874 32479 104609 46923 61359 119083 122711 21631 25260 25271 83043 86646 72196 72172 111817 115532 64973 61360 43280 14412 10812 32441 46982 57802 25247 25258 126318 36097 72181 75777 79417 36093 86648 90261 25273 28871 43307 28854 46923 25243 28872 54129 28848 39694 28853 28852 50525 39702 28869 54129 32477 46913 28850 28900 43308 36086 32476 90297 61413 75773 83003 72202 72203 72204 82992 79388 79437 75811 64963 68582 115480 111844 115446 119036 126321 126303 115432 108215 111822 104612 108214 111828 108215 108215 108215 104608 104599 104606 129837 115421 126320 126317 119027 119025 126236 122630 129840 126235 108215 111834 115422 111824 108213 104612 104611 115435 108221 111833 43297 28877 101006 97396 93791 97399 86605 79383 82985 86589 68579 64970 68573 68563 72177 72167 68565 61356 64981 39679 43312 39687 36078 21634 18022 25230 21626 28856 25239 61412 65015 68565 64962 54140 61354 57745 61350 57745 50533 54136 57737 54135 61342 57737 50529 54138 10809 10809 10808 7204 10808 10807 3602 7211 14416 18023 39648 36043 25239 28843 21638 21636 46983 43380 65016 61412 65016 25230 21623 21635 28839 25240 21637 39656 36054 104602 100997 93798 90189 79390 75783 86587 82984 75786 72180 54195 50587 46851 43247 43248 39644 21632 25236 21619 18017 18018 14416 7209 3602 10806 14412 3603 0 46882 18022 21628 25303 28917 68573 72187 126310 126312 36101 36146 28969 50645 68629 36127 68632 68633 65030 68621
36059 28854 21642 39687 86589 93813 97429 39815 39784 28925 32530 68501 10815 25251 82975 86603 25251 25275 25264 46935 50538 36088 36064 75709 79424 28865 25252 3602 32470 39765 43406 47033 57853 25298 25309 90210 36148 36073 39669 43309 36144 50540 54153 25262 18057 25235 21645 28851 21639 18058 36057 18034 21622 18039 18038 32453 21630 18055 36057 14405 28841 18036 21679 25236 18014 21662 54189 61464 39665 46895 36094 36095 36096 46884 43280 43329 39703 28855 32474 79372 75736 79338 82928 90213 90195 79324 72107 75714 68504 72106 75720 72107 72107 72107 68500 68491 68498 93729 79313 90212 90209 82919 82917 90128 86522 93732 90127 72107 75726 79314 75716 72105 68504 68503 79327 72113 75725 25225 21658 64898 61288 57683 61291 50497 43275 46877 50481 32471 28862 32465 32455 36069 36059 32457 25248 28873 7203 7204 14413 10804 32472 28860 32523 28919 28923 25306 61463 65066 32457 28854 18032 25246 21637 25242 21637 14425 18028 21629 18027 25234 21629 14421 18030 36075 36073 36076 39678 36074 36075 46975 43366 43369 46976 50613 47008 46996 50600 43395 43393 47034 43431 65067 61463 65067 32561 28954 43392 47008 46997 43394 43395 39793 68494 64889 57690 54081 43282 39675 50479 46876 39678 36072 54246 50638 47024 43420 50627 47023 36179 32575 36162 32560 39763 36161 46887 43280 39673 36076 50485 46882 0 32523 36129 25296 28910 32465 36079 90202 90204 36152 36197 28962 50696 68680 36178 68683 68684 65081 68672
57808 50603 43391 61436 108338 115562 119178 21742 21711 10852 14457 90250 32564 47000 104724 108352 10877 7248 7259 68684 72287 57837 57813 97458 101173 50614 47001 28921 7216 21692 25333 28960 39780 7225 7236 111959 18075 57822 61418 65058 18071 72289 75902 7261 14470 28948 14500 32564 14489 14465 39770 14489 25335 14484 14489 36166 25343 14468 39770 18118 32554 14487 10888 28949 21727 14492 75938 43391 61414 68644 57843 57844 57845 68633 65029 65078 61452 50604 54223 101121 97485 101087 104677 111962 111944 101073 93856 97463 90253 93855 97469 93856 93856 93856 90249 90240 90247 115478 101062 111961 111958 104668 104666 111877 108271 115481 111876 93856 97475 101063 97465 93854 90253 90252 101076 93862 97474 28938 10865 86647 83037 79432 83040 72246 65024 68626 72230 54220 50611 54214 54204 57818 57808 54206 46997 50622 25320 28953 25328 21719 14438 10826 7208 3604 10834 7217 43390 46993 54206 50603 39781 46995 43386 46991 43386 36174 39777 43378 39776 46983 43378 36170 39779 10818 10816 10819 10818 10817 10818 21624 25233 25296 28903 32540 28935 28923 32527 25322 25320 28961 25358 46994 43390 46994 14488 10881 25319 28935 28924 25321 25322 21720 90243 86638 79439 75830 65031 61424 72228 68625 61427 57821 36173 32565 28951 25347 32554 28950 18106 14502 18089 14487 21690 18088 18027 14420 7216 3610 21625 18022 32523 0 3606 7291 10905 54214 57828 111951 111953 18079 18124 10957 32623 50607 18105 50610 50611 47008 50599
61414 54209 46997 65042 111944 119168 122784 25348 25317 14458 18063 93856 36170 50606 108330 111958 14483 10854 10865 72290 75893 61443 61419 101064 104779 54220 50607 32527 10822 25298 28939 32566 43386 10831 10842 115565 21681 61428 65024 68664 21677 75895 79508 10867 18076 32554 18106 36170 18095 18071 43376 18095 28941 18090 18095 39772 28949 18074 43376 21724 36160 18093 14494 32555 25333 18098 79544 46997 65020 72250 61449 61450 61451 72239 68635 68684 65058 54210 57829 104727 101091 104693 108283 115568 115550 104679 97462 101069 93859 97461 101075 97462 97462 97462 93855 93846 93853 119084 104668 115567 115564 108274 108272 115483 111877 119087 115482 97462 101081 104669 101071 97460 93859 93858 104682 97468 101080 32544 14471 90253 86643 83038 86646 75852 68630 72232 75836 57826 54217 57820 57810 61424 61414 57812 50603 54228 28926 32559 28934 25325 18044 14432 10814 7210 14440 10823 46996 50599 57812 54209 43387 50601 46992 50597 46992 39780 43383 46984 43382 50589 46984 39776 43385 14424 14422 14425 14424 14423 14424 25230 28839 28902 32509 36146 32541 32529 36133 28928 28926 32567 28964 50600 46996 50600 18094 14487 28925 32541 32530 28927 28928 25326 93849 90244 83045 79436 68637 65030 75834 72231 65033 61427 39779 36171 32557 28953 36160 32556 21712 18108 21695 18093 25296 21694 21633 18026 10822 7216 25231 21628 36129 3606 0 10897 14511 57820 61434 115557 115559 21685 21730 14563 36229 54213 21711 54216 54217 50614 54205
50581 43376 36164 54209 101111 108335 111951 14583 14552 3693 7298 83023 25337 39773 97497 101125 3672 43 32 61457 65060 50610 50586 90231 93946 43387 39774 21694 10891 14533 18174 21801 32621 66 77 104732 10916 50595 54191 57831 10912 65062 68675 34 7243 21721 7273 25337 7284 7238 32543 7262 18108 7257 7262 28939 18116 7241 32543 10891 25327 7260 3661 21722 14500 7265 68711 36232 54187 61417 50616 50617 50618 61406 57802 57851 54225 43377 46996 93894 90258 93860 97450 104735 104717 93846 86629 90236 83026 86628 90242 86629 86629 86629 83022 83013 83020 108251 93835 104734 104731 97441 97439 104650 101044 108254 104649 86629 90248 93836 90238 86627 83026 83025 93849 86635 90247 21711 3638 79420 75810 72205 75813 65019 57797 61399 65003 46993 43384 46987 46977 50591 50581 46979 39770 43395 18093 21726 18101 14492 10893 7281 7291 3687 3691 74 36231 39834 46979 43376 32554 39768 36159 39764 36159 28947 32550 36151 32549 39756 36151 28943 32552 14496 14494 14497 18099 14495 14496 21743 18134 18137 21744 25381 21776 21764 25368 18163 18161 21802 18199 39835 36231 39835 7329 3722 18160 21776 21765 18162 18163 14561 83016 79411 72212 68603 57804 54197 65001 61398 54200 50594 29014 25406 21792 18188 25395 21791 10947 7343 10930 7328 14531 10929 25308 21701 14507 10901 28906 25303 25296 7291 10897 0 3614 46987 50601 104724 104726 10920 10965 3666 25464 43448 10946 43451 43452 39849 43440
54195 46990 39778 57823 104725 111949 115565 18197 18166 7307 10912 86637 28951 43387 101111 104739 7286 3657 3646 65071 68674 54224 54200 93845 97560 47001 43388 25308 14505 18147 21788 25415 36235 3680 3691 108346 14530 54209 57805 61445 14526 68676 72289 3648 10857 25335 10887 28951 10898 10852 36157 10876 21722 10871 10876 32553 21730 10855 36157 14505 28941 10874 7275 25336 18114 10879 72325 39846 57801 65031 54230 54231 54232 65020 61416 61465 57839 46991 50610 97508 93872 97474 101064 108349 108331 97460 90243 93850 86640 90242 93856 90243 90243 90243 86636 86627 86634 111865 97449 108348 108345 101055 101053 108264 104658 111868 108263 90243 93862 97450 93852 90241 86640 86639 97463 90249 93861 25325 7252 83034 79424 75819 79427 68633 61411 65013 68617 50607 46998 50601 50591 54205 54195 50593 43384 47009 21707 25340 21715 18106 14507 10895 10905 7301 7305 3688 39845 43448 50593 46990 36168 43382 39773 43378 39773 32561 36164 39765 36163 43370 39765 32557 36166 18110 18108 18111 21713 18109 18110 25357 21748 21751 25358 28995 25390 25378 28982 21777 21775 25416 21813 43449 39845 43449 10943 7336 21774 25390 25379 21776 21777 18175 86630 83025 75826 72217 61418 57811 68615 65012 57814 54208 32628 29020 25406 21802 29009 25405 14561 10957 14544 10942 18145 14543 28922 25315 18121 14515 32520 28917 28910 10905 14511 3614 0 50601 54215 108338 108340 14534 14579 7280 29078 47062 14560 47065 47066 43463 47054
25240 18035 10823 28868 54124 61348 64964 61506 61475 50616 54221 36036 21650 32473 50510 54138 46942 46966 46955 21670 25273 10823 14448 43244 46959 3600 7213 28863 54161 61456 65097 68724 79544 46989 47000 57745 57839 18034 18053 21693 57835 25275 28888 46953 39748 46926 43336 50542 43330 39749 57748 39725 43313 39730 39729 54144 43321 39746 57748 36096 50532 39727 43370 46927 39705 43353 28924 83155 28846 25279 10829 10830 10831 25268 21664 18064 14438 10846 7209 46907 43271 46873 50463 57748 57730 46859 39642 43249 36039 39641 43255 39642 39642 39642 36035 36026 36033 61264 46848 57747 57744 50454 50452 57663 54057 61267 57662 39642 43261 46849 43251 39640 36039 36038 46862 39648 43260 46916 43349 32433 28823 25218 28826 18032 10810 14412 18016 14432 10823 14426 21636 18030 21650 21638 14429 18054 28894 25261 36104 32495 54163 50551 54214 50610 50614 46997 83154 86757 14448 18056 14433 14427 18037 21642 28859 18040 28849 25244 21642 28849 25244 25256 28865 57766 57764 57767 61369 57765 57766 68666 65057 65060 68667 72304 68699 68687 72291 65086 65084 68725 65122 86758 83154 86758 54252 50645 65083 68699 68688 65085 65086 61484 36029 32424 25225 21616 10817 7210 18014 14411 7213 3607 75937 72329 68715 65111 72318 68714 57870 54266 57853 54251 61454 57852 68578 64971 61364 57767 72176 68573 32465 54214 57820 46987 50601 0 3614 57737 57739 57843 57888 50653 72387 90371 57869 90374 90375 86772 90363
28854 21649 14437 32482 57738 64962 68578 65120 65089 54230 57835 39650 25264 36087 54124 57752 50556 50580 50569 25284 28887 14437 18062 46858 50573 7214 10827 32477 57775 65070 68711 72338 83158 50603 50614 61359 61453 21648 21667 25307 61449 28889 32502 50567 43362 50540 46950 54156 46944 43363 61362 43339 46927 43344 43343 57758 46935 43360 61362 39710 54146 43341 46984 50541 43319 46967 32538 86769 32460 28893 14443 14444 14445 28882 25278 21678 18052 14460 10823 50521 46885 50487 54077 61362 61344 50473 43256 46863 39653 43255 46869 43256 43256 43256 39649 39640 39647 64878 50462 61361 61358 54068 54066 61277 57671 64881 61276 43256 46875 50463 46865 43254 39653 39652 50476 43262 46874 50530 46963 36047 32437 28832 32440 21646 14424 18026 21630 18046 14437 18040 25250 21644 25264 25252 18043 21668 32508 28875 39718 36109 57777 54165 57828 54224 54228 50611 86768 90371 18062 21670 18047 18041 21651 25256 32473 21654 32463 28858 25256 32463 28858 28870 32479 61380 61378 61381 64983 61379 61380 72280 68671 68674 72281 75918 72313 72301 75905 68700 68698 72339 68736 90372 86768 90372 57866 54259 68697 72313 72302 68699 68700 65098 39643 36038 28839 25230 14431 10824 21628 18025 10827 7221 79551 75943 72329 68725 75932 72328 61484 57880 61467 57865 65068 61466 72192 68585 64978 61381 75790 72187 36079 57828 61434 50601 54215 3614 0 61351 61353 61457 61502 54267 76001 93985 61483 93988 93989 90386 93977
82977 75772 68560 86605 3613 10837 14453 119243 119212 108353 111958 21708 79387 90210 7227 10855 104679 104703 104692 79407 83010 68560 72185 18040 18154 61337 64950 86600 111898 119193 122834 126461 137281 104726 104737 8 115576 75771 75790 79430 115572 83012 86625 104690 97485 104663 101073 108279 101067 97486 115485 97462 101050 97467 97466 111881 101058 97483 115485 93833 108269 97464 101107 104664 97442 101090 86661 140892 86583 83016 68566 68567 68568 83005 79401 75801 72175 68583 64946 10830 14466 18068 21691 10838 7219 21655 18095 21702 21711 21643 25257 21644 25248 25309 21702 21711 21704 32454 14436 10 7 21644 21642 28853 25247 32457 28852 21642 25261 18039 25255 21644 21717 21710 32540 25326 28938 104653 101086 25311 28914 32519 36127 46951 46927 43331 39721 72169 68560 72163 79373 75767 79387 79375 72166 75791 86631 82998 93841 90232 111900 108288 111951 108347 108351 104734 140891 144494 72185 75793 72170 72164 75774 79379 86596 75777 86586 82981 79379 86586 82981 82993 86602 115503 115501 115504 119106 115502 115503 126403 122794 122797 126404 130041 126436 126424 130028 122823 122821 126462 122859 144495 140891 144495 111989 108382 122820 126436 126425 122822 122823 119221 28918 25313 39730 36121 54134 50527 46929 43326 57736 54130 133674 130066 126452 122848 130055 126451 115607 112003 115590 111988 119191 115589 126315 122708 119101 115504 129913 126310 90202 111951 115557 104724 108338 57737 61351 0 7228 115580 115625 108390 130124 148108 115606 148111 148112 144509 148100
82979 75774 68562 86607 3615 10839 14455 119245 119214 108355 111960 21710 79389 90212 7229 10857 104681 104705 104694 79409 83012 68562 72187 18042 18156 61339 64952 86602 111900 119195 122836 126463 137283 104728 104739 7236 115578 75773 75792 79432 115574 83014 86627 104692 97487 104665 101075 108281 101069 97488 115487 97464 101052 97469 97468 111883 101060 97485 115487 93835 108271 97466 101109 104666 97444 101092 86663 140894 86585 83018 68568 68569 68570 83007 79403 75803 72177 68585 64948 10832 14468 18070 21693 10840 7221 21657 18097 21704 21713 21645 25259 21646 25250 25311 21704 21713 21706 32456 14438 7238 7235 21646 21644 28855 25249 32459 28854 21644 25263 18041 25257 21646 21719 21712 32542 25328 28940 104655 101088 25313 28916 32521 36129 46953 46929 43333 39723 72171 68562 72165 79375 75769 79389 79377 72168 75793 86633 83000 93843 90234 111902 108290 111953 108349 108353 104736 140893 144496 72187 75795 72172 72166 75776 79381 86598 75779 86588 82983 79381 86588 82983 82995 86604 115505 115503 115506 119108 115504 115505 126405 122796 122799 126406 130043 126438 126426 130030 122825 122823 126464 122861 144497 140893 144497 111991 108384 122822 126438 126427 122824 122825 119223 28920 25315 39732 36123 54136 50529 46931 43328 57738 54132 133676 130068 126454 122850 130057 126453 115609 112005 115592 111990 119193 115591 126317 122710 119103 115506 129915 126312 90204 111953 115559 104726 108340 57739 61353 7228 0 115582 115627 108392 130126 148110 115608 148113 148114 144511 148102
61437 54232 47020 65065 111967 119191 122807 3663 18086 7227 3622 93879 36193 50629 108353 111981 14506 10877 10888 72313 75916 61466 61442 101087 104802 54243 50630 32550 21725 25299 7270 10881 21701 10854 10843 115588 4 61451 65047 68687 8 75918 79531 10890 18099 32577 18129 36193 18118 18094 43399 18118 28964 18113 18118 39795 28972 18097 43399 21747 36183 18116 14517 32578 25356 18121 79567 25312 65043 72273 61472 61473 61474 72262 68658 68707 65081 54233 57852 104750 101114 104716 108306 115591 115573 104702 97485 101092 93882 97484 101098 97485 97485 97485 93878 93869 93876 119107 104691 115590 115587 108297 108295 115506 111900 119110 115505 97485 101104 104692 101094 97483 93882 93881 104705 97491 101103 32567 14494 90276 86666 83061 86669 75875 68653 72255 75859 57849 54240 57843 57833 61447 61437 57835 50626 54251 28949 32582 28957 25348 21727 18115 18079 14475 14479 10862 25311 28914 57835 54232 43410 50624 47015 50620 47015 39803 43406 47007 43405 50612 47007 39799 43408 25330 25328 25331 28897 25329 25330 32509 28900 21697 25304 14477 10872 14472 18076 18077 18075 10882 7279 28915 25311 28915 18095 14488 18076 10872 14479 18074 7259 3657 93872 90267 83068 79459 68660 65053 75857 72254 65056 61450 18094 14486 10872 7268 14475 10871 14481 10877 21696 18094 25297 21695 36106 32499 25295 21689 39704 36101 36152 18079 21685 10920 14534 57843 61457 115580 115582 0 7289 14586 14544 32528 34 32531 32532 28929 32520
61482 54277 47065 65110 112012 119236 122852 10952 18131 7272 3667 93924 36238 50674 108398 112026 14551 10922 10933 72358 75961 61511 61487 101132 104847 54288 50675 32595 21770 25344 14543 18170 28990 10899 10888 115633 7285 61496 65092 68732 7281 75963 79576 10935 18144 32622 18174 36238 18163 18139 43444 18163 29009 18158 18163 39840 29017 18142 43444 21792 36228 18161 14562 32623 25401 18166 79612 32601 65088 72318 61517 61518 61519 72307 68703 68752 65126 54278 57897 104795 101159 104761 108351 115636 115618 104747 97530 101137 93927 97529 101143 97530 97530 97530 93923 93914 93921 119152 104736 115635 115632 108342 108340 115551 111945 119155 115550 97530 101149 104737 101139 97528 93927 93926 104750 97536 101148 32612 14539 90321 86711 83106 86714 75920 68698 72300 75904 57894 54285 57888 57878 61492 61482 57880 50671 54296 28994 32627 29002 25393 21772 18160 18124 14520 14524 10907 32600 36203 57880 54277 43455 50669 47060 50665 47060 39848 43451 47052 43450 50657 47052 39844 43453 25375 25373 25376 28942 25374 25375 32554 28945 21742 25349 21750 18145 21745 25349 21742 21740 18171 14568 36204 32600 36204 18140 14533 21739 18145 21752 21741 14532 10930 93917 90312 83113 79504 68705 65098 75902 72299 65101 61495 25383 21775 18161 14557 21764 18160 14526 10922 21741 18139 25342 21740 36151 32544 25340 21734 39749 36146 36197 18124 21730 10965 14579 57888 61502 115625 115627 7289 0 14631 21833 39817 7315 39820 39821 36218 39809
54247 47042 39830 57875 104777 112001 115617 18249 18218 7359 10964 86689 29003 43439 101163 104791 7338 3709 3698 65123 68726 54276 54252 93897 97612 47053 43440 25360 14557 18199 21840 25467 36287 3732 3743 108398 14582 54261 57857 61497 14578 68728 72341 3700 10909 25387 10939 29003 10950 10904 36209 10928 21774 10923 10928 32605 21782 10907 36209 14557 28993 10926 7327 25388 18166 10931 72377 39898 57853 65083 54282 54283 54284 65072 61468 61517 57891 47043 50662 97560 93924 97526 101116 108401 108383 97512 90295 93902 86692 90294 93908 90295 90295 90295 86688 86679 86686 111917 97501 108400 108397 101107 101105 108316 104710 111920 108315 90295 93914 97502 93904 90293 86692 86691 97515 90301 93913 25377 7304 83086 79476 75871 79479 68685 61463 65065 68669 50659 47050 50653 50643 54257 54247 50645 43436 47061 21759 25392 21767 18158 14559 10947 10957 7353 7357 3740 39897 43500 50645 47042 36220 43434 39825 43430 39825 32613 36216 39817 36215 43422 39817 32609 36218 18162 18160 18163 21765 18161 18162 25409 21800 21803 25410 29047 25442 25430 29034 21829 21827 25468 21865 43501 39897 43501 10995 7388 21826 25442 25431 21828 21829 18227 86682 83077 75878 72269 61470 57863 68667 65064 57866 54260 32680 29072 25458 21854 29061 25457 14613 11009 14596 10994 18197 14595 28974 25367 18173 14567 32572 28969 28962 10957 14563 3666 7280 50653 54267 108390 108392 14586 14631 0 29130 47114 14612 47117 47118 43515 47106
75981 68776 61564 79609 126511 133735 137351 10881 32630 21771 18166 108423 50737 65173 122897 126525 29050 25421 25432 86857 90460 76010 75986 115631 119346 68787 65174 47094 36269 39843 21814 3663 14483 25398 25387 130132 14548 75995 79591 83231 14552 90462 94075 25434 32643 47121 32673 50737 32662 32638 57943 32662 43508 32657 32662 54339 43516 32641 57943 36291 50727 32660 29061 47122 39900 32665 94111 18094 79587 86817 76016 76017 76018 86806 83202 83251 79625 68777 72396 119294 115658 119260 122850 130135 130117 119246 112029 115636 108426 112028 115642 112029 112029 112029 108422 108413 108420 133651 119235 130134 130131 122841 122839 130050 126444 133654 130049 112029 115648 119236 115638 112027 108426 108425 119249 112035 115647 47111 29038 104820 101210 97605 101213 90419 83197 86799 90403 72393 68784 72387 72377 75991 75981 72379 65170 68795 43493 47126 43501 39892 36271 32659 32623 29019 29023 25406 18093 21696 72379 68776 57954 65168 61559 65164 61559 54347 57950 61551 57949 65156 61551 54343 57952 39874 39872 39875 43441 39873 39874 47053 43444 36241 39848 25295 21690 29016 32620 32621 32619 10868 7265 21697 18093 21697 32639 29032 32620 25416 29023 32618 21803 18201 108416 104811 97612 94003 83204 79597 90401 86798 79600 75994 10876 7268 18090 14486 21693 18089 29025 25421 36240 32638 39841 36239 50650 47043 39839 36233 54248 50645 50696 32623 36229 25464 29078 72387 76001 130124 130126 14544 21833 29130 0 25310 14578 25313 25314 21711 25302
93965 86760 79548 97593 144495 151719 155335 28865 50614 39755 36150 126407 68721 83157 140881 144509 47034 43405 43416 104841 108444 93994 93970 133615 137330 86771 83158 65078 54253 57827 39798 21647 10827 43382 43371 148116 32532 93979 97575 101215 32536 108446 112059 43418 50627 65105 50657 68721 50646 50622 75927 50646 61492 50641 50646 72323 61500 50625 75927 54275 68711 50644 47045 65106 57884 50649 112095 14438 97571 104801 94000 94001 94002 104790 101186 101235 97609 86761 90380 137278 133642 137244 140834 148119 148101 137230 130013 133620 126410 130012 133626 130013 130013 130013 126406 126397 126404 151635 137219 148118 148115 140825 140823 148034 144428 151638 148033 130013 133632 137220 133622 130011 126410 126409 137233 130019 133631 65095 47022 122804 119194 115589 119197 108403 101181 104783 108387 90377 86768 90371 90361 93975 93965 90363 83154 86779 61477 65110 61485 57876 54255 50643 50607 47003 47007 43390 14437 18040 90363 86760 75938 83152 79543 83148 79543 72331 75934 79535 75933 83140 79535 72327 75936 57858 57856 57859 61425 57857 57858 65037 61428 54225 57832 43279 39674 47000 50604 50605 50603 28852 25249 10821 7217 3613 50623 47016 50604 43400 47007 50602 39787 36185 126400 122795 115596 111987 101188 97581 108385 104782 97584 93978 14434 18042 36074 32470 39677 36073 47009 43405 54224 50622 57825 54223 68634 65027 57823 54217 72232 68629 68680 50607 54213 43448 47062 90371 93985 148108 148110 32528 39817 47114 25310 0 32562 21657 21658 18055 7218
61463 54258 47046 65091 111993 119217 122833 3697 18112 7253 3648 93905 36219 50655 108379 112007 14532 10903 10914 72339 75942 61492 61468 101113 104828 54269 50656 32576 21751 25325 7296 10915 21735 10880 10869 115614 30 61477 65073 68713 34 75944 79557 10916 18125 32603 18155 36219 18144 18120 43425 18144 28990 18139 18144 39821 28998 18123 43425 21773 36209 18142 14543 32604 25382 18147 79593 25346 65069 72299 61498 61499 61500 72288 68684 68733 65107 54259 57878 104776 101140 104742 108332 115617 115599 104728 97511 101118 93908 97510 101124 97511 97511 97511 93904 93895 93902 119133 104717 115616 115613 108323 108321 115532 111926 119136 115531 97511 101130 104718 101120 97509 93908 93907 104731 97517 101129 32593 14520 90302 86692 83087 86695 75901 68679 72281 75885 57875 54266 57869 57859 61473 61463 57861 50652 54277 28975 32608 28983 25374 21753 18141 18105 14501 14505 10888 25345 28948 57861 54258 43436 50650 47041 50646 47041 39829 43432 47033 43431 50638 47033 39825 43434 25356 25354 25357 28923 25355 25356 32535 28926 21723 25330 14503 10898 14498 18102 18103 18101 10916 7313 28949 25345 28949 18121 14514 18102 10898 14505 18100 7285 3683 93898 90293 83094 79485 68686 65079 75883 72280 65082 61476 18128 14520 10906 7302 14509 10905 14507 10903 21722 18120 25323 21721 36132 32525 25321 21715 39730 36127 36178 18105 21711 10946 14560 57869 61483 115606 115608 34 7315 14612 14578 32562 0 32565 32566 28963 32554
93968 86763 79551 97596 144498 151722 155338 28868 50617 39758 36153 126410 68724 83160 140884 144512 47037 43408 43419 104844 108447 93997 93973 133618 137333 86774 83161 65081 54256 57830 39801 21650 10830 43385 43374 148119 32535 93982 97578 101218 32539 108449 112062 43421 50630 65108 50660 68724 50649 50625 75930 50649 61495 50644 50649 72326 61503 50628 75930 54278 68714 50647 47048 65109 57887 50652 112098 14441 97574 104804 94003 94004 94005 104793 101189 101238 97612 86764 90383 137281 133645 137247 140837 148122 148104 137233 130016 133623 126413 130015 133629 130016 130016 130016 126409 126400 126407 151638 137222 148121 148118 140828 140826 148037 144431 151641 148036 130016 133635 137223 133625 130014 126413 126412 137236 130022 133634 65098 47025 122807 119197 115592 119200 108406 101184 104786 108390 90380 86771 90374 90364 93978 93968 90366 83157 86782 61480 65113 61488 57879 54258 50646 50610 47006 47010 43393 7220 3617 90366 86763 75941 83155 79546 83151 79546 72334 75937 79538 75936 83143 79538 72330 75939 57861 57859 57862 61428 57860 57861 65040 61431 54228 57835 43282 39677 47003 50607 50608 50606 28855 25252 18044 14440 18044 50626 47019 50607 43403 47010 50605 39790 36188 126403 122798 115599 111990 101191 97584 108388 104785 97587 93981 14437 18045 36077 32473 39680 36076 47012 43408 54227 50625 57828 54226 68637 65030 57826 54220 72235 68632 68683 50610 54216 43451 47065 90374 93988 148111 148113 32531 39820 47117 25313 21657 32565 0 7235 10838 21649
93969 86764 79552 97597 144499 151723 155339 28869 50618 39759 36154 126411 68725 83161 140885 144513 47038 43409 43420 104845 108448 93998 93974 133619 137334 86775 83162 65082 54257 57831 39802 21651 10831 43386 43375 148120 32536 93983 97579 101219 32540 108450 112063 43422 50631 65109 50661 68725 50650 50626 75931 50650 61496 50645 50650 72327 61504 50629 75931 54279 68715 50648 47049 65110 57888 50653 112099 14442 97575 104805 94004 94005 94006 104794 101190 101239 97613 86765 90384 137282 133646 137248 140838 148123 148105 137234 130017 133624 126414 130016 133630 130017 130017 130017 126410 126401 126408 151639 137223 148122 148119 140829 140827 148038 144432 151642 148037 130017 133636 137224 133626 130015 126414 126413 137237 130023 133635 65099 47026 122808 119198 115593 119201 108407 101185 104787 108391 90381 86772 90375 90365 93979 93969 90367 83158 86783 61481 65114 61489 57880 54259 50647 50611 47007 47011 43394 7221 3618 90367 86764 75942 83156 79547 83152 79547 72335 75938 79539 75937 83144 79539 72331 75940 57862 57860 57863 61429 57861 57862 65041 61432 54229 57836 43283 39678 47004 50608 50609 50607 28856 25253 18045 14441 18045 50627 47020 50608 43404 47011 50606 39791 36189 126404 122799 115600 111991 101192 97585 108389 104786 97588 93982 14438 18046 36078 32474 39681 36077 47013 43409 54228 50626 57829 54227 68638 65031 57827 54221 72236 68633 68684 50611 54217 43452 47066 90375 93989 148112 148114 32532 39821 47118 25314 21658 32566 7235 0 10839 21650
90366 83161 75949 93994 140896 148120 151736 25266 47015 36156 32551 122808 65122 79558 137282 140910 43435 39806 39817 101242 104845 90395 90371 130016 133731 83172 79559 61479 50654 54228 36199 18048 7228 39783 39772 144517 28933 90380 93976 97616 28937 104847 108460 39819 47028 61506 47058 65122 47047 47023 72328 47047 57893 47042 47047 68724 57901 47026 72328 50676 65112 47045 43446 61507 54285 47050 108496 10839 93972 101202 90401 90402 90403 101191 97587 97636 94010 83162 86781 133679 130043 133645 137235 144520 144502 133631 126414 130021 122811 126413 130027 126414 126414 126414 122807 122798 122805 148036 133620 144519 144516 137226 137224 144435 140829 148039 144434 126414 130033 133621 130023 126412 122811 122810 133634 126420 130032 61496 43423 119205 115595 111990 115598 104804 97582 101184 104788 86778 83169 86772 86762 90376 90366 86764 79555 83180 57878 61511 57886 54277 50656 47044 47008 43404 43408 39791 3618 7221 86764 83161 72339 79553 75944 79549 75944 68732 72335 75936 72334 79541 75936 68728 72337 54259 54257 54260 57826 54258 54259 61438 57829 50626 54233 39680 36075 43401 47005 47006 47004 25253 21650 14442 10838 14442 47024 43417 47005 39801 43408 47003 36188 32586 122801 119196 111997 108388 97589 93982 104786 101183 93985 90379 10835 14443 32475 28871 36078 32474 43410 39806 50625 47023 54226 50624 65035 61428 54224 50618 68633 65030 65081 47008 50614 39849 43463 86772 90386 144509 144511 28929 36218 43515 21711 18055 28963 10838 10839 0 18047
93957 86752 79540 97585 144487 151711 155327 28857 50606 39747 36142 126399 68713 83149 140873 144501 47026 43397 43408 104833 108436 93986 93962 133607 137322 86763 83150 65070 54245 57819 39790 21639 10819 43374 43363 148108 32524 93971 97567 101207 32528 108438 112051 43410 50619 65097 50649 68713 50638 50614 75919 50638 61484 50633 50638 72315 61492 50617 75919 54267 68703 50636 47037 65098 57876 50641 112087 14430 97563 104793 93992 93993 93994 104782 101178 101227 97601 86753 90372 137270 133634 137236 140826 148111 148093 137222 130005 133612 126402 130004 133618 130005 130005 130005 126398 126389 126396 151627 137211 148110 148107 140817 140815 148026 144420 151630 148025 130005 133624 137212 133614 130003 126402 126401 137225 130011 133623 65087 47014 122796 119186 115581 119189 108395 101173 104775 108379 90369 86760 90363 90353 93967 93957 90355 83146 86771 61469 65102 61477 57868 54247 50635 50599 46995 46999 43382 14429 18032 90355 86752 75930 83144 79535 83140 79535 72323 75926 79527 75925 83132 79527 72319 75928 57850 57848 57851 61417 57849 57850 65029 61420 54217 57824 43271 39666 46992 50596 50597 50595 28844 25241 10813 7209 3605 50615 47008 50596 43392 46999 50594 39779 36177 126392 122787 115588 111979 101180 97573 108377 104774 97576 93970 14426 18034 36066 32462 39669 36065 47001 43397 54216 50614 57817 54215 68626 65019 57815 54209 72224 68621 68672 50599 54205 43440 47054 90363 93977 148100 148102 32520 39809 47106 25302 7218 32554 21649 21650 18047 0
EOF