NAME : Phase1_Fixed
TYPE : CVRP
DIMENSION : 12
EDGE_WEIGHT_TYPE : EXPLICIT
EDGE_WEIGHT_FORMAT : FULL_MATRIX 
CAPACITY : 100 
DISTANCE : 10000000 
VEHICLES : 2
SERVICE_TIME : 1
DEPOT_SECTION 
5
-1 
DEMAND_SECTION 
1 0
2 1
3 0
4 0
5 0
6 0
7 1
8 0
9 0
10 1
11 1
12 1
EDGE_WEIGHT_SECTION
0 5 11 6 11 16 11 16 21 27 22 27
5 0 6 11 6 11 16 11 16 22 17 22
11 6 0 15 10 5 20 15 10 16 21 16
6 11 15 0 5 10 5 10 15 21 16 21
11 6 10 5 0 5 10 5 10 16 11 16
16 11 5 10 5 0 15 10 5 11 16 11
11 16 20 5 10 15 0 6 11 17 12 17
16 11 15 10 5 10 6 0 5 11 6 11
21 16 10 15 10 5 11 5 0 6 11 6
27 22 16 21 16 11 17 11 6 0 17 12
22 17 21 16 11 16 12 6 11 17 0 5
27 22 16 21 16 11 17 11 6 12 5 0
EOF