NAME : Phase1_Debris_Clearance
TYPE : CVRP
DIMENSION : 6
EDGE_WEIGHT_TYPE : EXPLICIT
EDGE_WEIGHT_FORMAT : FULL_MATRIX 
CAPACITY : 1000 
DISTANCE : 144000 
VEHICLES : 1
SERVICE_TIME : 600
DEPOT_SECTION 
1
-1 
DEMAND_SECTION 
1 0
2 0
3 1
4 1
5 0
6 1
EDGE_WEIGHT_SECTION
999999   3800   4024 999999 999999 999999
  3800 999999   3916 999999 999999    316
  4024   3916 999999    224    224 999999
999999 999999    224 999999   3916 999999
999999 999999    224   3916 999999   3900
999999    316 999999 999999   3900 999999
EOF
