NAME : Phase1_Debris_Clearance
COMMENT : 10 mph, distance in hours
TYPE : ADCVRP
DIMENSION : 12
CAPACITY : 10
DISTANCE : 65
VEHICLES : 2
NODE_COORD_TYPE : TWOD_COORDS
EDGE_WEIGHT_TYPE : EXPLICIT
EDGE_WEIGHT_FORMAT : FULL_MATRIX 
NODE_COORD_SECTION
1 0 0
2 50 0
3 100 0
4 0 50
5 50 50
6 100 50
7 0 100
8 50 100
9 100 100
10 150 100
11 50 150
12 100 150
DEMAND_SECTION 
1 1
2 2
3 1
4 1
5 0
6 0
7 1
8 2
9 2
10 1
11 1
12 1
DEPOT_SECTION 
5
-1
TIME_WINDOW_SECTION
1 0 100
2 0 50
3 0 100
4 0 100
5 0 100
6 0 100
7 0 50
8 0 100
9 0 100
10 0 50
11 0 25
12 0 50
EDGE_WEIGHT_SECTION
999999	5	999999	6	20	999999	999999	999999	999999	999999	999999	999999
5	999999	6	999999	10	999999	999999	999999	999999	999999	999999	999999
999999	6	999999	999999	10	5	999999	999999	999999	999999	999999	999999
6	999999	999999	999999	5	999999	5	999999	999999	999999	999999	999999
20	10	10	5	999999	5	20	5	10	30	20	30
999999	999999	5	999999	5	999999	999999	999999	5	999999	999999	999999
999999	999999	999999	5	20	999999	999999	6	999999	999999	999999	999999
999999	999999	999999	999999	5	999999	6	999999	5	999999	6	999999
999999	999999	999999	999999	10	5	999999	5	999999	6	999999	6
999999	999999	999999	999999	30	999999	999999	999999	6	999999	999999	999999
999999	999999	999999	999999	20	999999	999999	6	999999	999999	999999	5
999999	999999	999999	999999	30	999999	999999	999999	6	999999	5	999999
EOF


