NAME : Phase1_Debris_Clearance
COMMENT : Depot=1, Critical=3, Pop=4&6. Time in Seconds.
TYPE : DCVRP
DIMENSION : 5
EDGE_DATA_FORMAT : ADJ_LIST
EDGE_WEIGHT_TYPE : EXPLICIT
EDGE_WEIGHT_FORMAT : FULL_MATRIX 
CAPACITY : 1000 
DISTANCE : 14400000.5
VEHICLES : 1
SERVICE_TIME : 360
NODE_COORD_TYPE : TWOD_COORDS
NODE_COORD_SECTION
1 2000 2000
2 2000 5000
3 5000 5000
4 5000 2000
5 8000 5000
DEMAND_SECTION 
1 0
2 0
3 0  
4 1
5 100
DEPOT_SECTION 
2
-1
TIME_WINDOW_SECTION
1 0 100000
2 0 100000
3 0 100000
4 0 100
5 0 10
EDGE_WEIGHT_SECTION
999999 	300 	424 	300 	999999
300 	999999 	300 	999999 	999999
424 	300 	999999 	300 	300
300 	999999 	300 	999999 	999999
999999 	999999 	300 	999999 	999999
EOF

